&CONTROL
   calculation      = 'scf'
   verbosity        = 'high'
   prefix           = 'Se-104'
   disk_io          = 'nowf'
   pseudo_dir       = './'
/
&SYSTEM
   ecutwfc          = 100
   occupations      = 'smearing'
   degauss          = 0.0007349862
   smearing         = 'gaussian'
   nspin            = 1
   ntyp             = 1
   nat              = 3
   ibrav            = 0
/
&ELECTRONS
   conv_thr         = 1e-10
/
&IONS
/
&CELL
/

ATOMIC_SPECIES
Se 78.971 Se_ONCV_PBE-1.2.upf

K_POINTS automatic
26 26 20  1 1 1

CELL_PARAMETERS angstrom
4.58418156490093 0.00000000000000 0.00000000000000
-2.29209078245046 3.97001769076450 0.00000000000000
0.00000000000000 0.00000000000000 5.11623209422305

ATOMIC_POSITIONS angstrom
Se 1.2550916102 0.4347764874 2.5580904660 
Se -0.2510183220 1.3043294622 4.2635352722 
Se 2.0410724604 3.5352412034 0.8526968220 

