&CONTROL
   calculation      = 'scf'
   verbosity        = 'high'
   prefix           = 'Se-102'
   disk_io          = 'nowf'
   pseudo_dir       = './'
/
&SYSTEM
   ecutwfc          = 100
   occupations      = 'smearing'
   degauss          = 0.0007349862
   smearing         = 'gaussian'
   nspin            = 1
   ntyp             = 1
   nat              = 3
   ibrav            = 0
/
&ELECTRONS
   conv_thr         = 1e-10
/
&IONS
/
&CELL
/

ATOMIC_SPECIES
Se 78.971 Se_ONCV_PBE-1.2.upf

K_POINTS automatic
26 26 20  1 1 1

CELL_PARAMETERS angstrom
4.55460537658407 0.00000000000000 0.00000000000000
-2.27730268829203 3.94440396033499 0.00000000000000
0.00000000000000 0.00000000000000 5.08322322628247

ATOMIC_POSITIONS angstrom
Se 1.2469940195 0.4319713997 2.5415861970 
Se -0.2493988039 1.2959141991 4.2360278273 
Se 2.0279038844 3.5124325606 0.8471953990 

