&CONTROL
   calculation      = 'scf'
   verbosity        = 'high'
   prefix           = 'Ag-102'
   disk_io          = 'nowf'
   pseudo_dir       = './'
/
&SYSTEM
   ecutwfc          = 100
   occupations      = 'smearing'
   degauss          = 0.0007349862
   smearing         = 'gaussian'
   nspin            = 1
   ntyp             = 1
   nat              = 4
   ibrav            = 0
/
&ELECTRONS
   conv_thr         = 1e-10
/
&IONS
/
&CELL
/

ATOMIC_SPECIES
Ag 107.8682 Ag_ONCV_PBE-1.2.upf

K_POINTS automatic
24 24 24  1 1 1

CELL_PARAMETERS angstrom
4.19181855205861 0.00000000000000 0.00000000000000
0.00000000000000 4.19181855205861 0.00000000000000
0.00000000000000 0.00000000000000 4.19181855205861

ATOMIC_POSITIONS angstrom
Ag 1.0479546380 1.0479546380 1.0479546380 
Ag 1.0479546380 3.1438639140 3.1438639140 
Ag 3.1438639140 1.0479546380 3.1438639140 
Ag 3.1438639140 3.1438639140 1.0479546380 

