&CONTROL
   calculation      = 'scf'
   verbosity        = 'high'
   prefix           = 'Ag-98'
   disk_io          = 'nowf'
   pseudo_dir       = './'
/
&SYSTEM
   ecutwfc          = 100
   occupations      = 'smearing'
   degauss          = 0.0007349862
   smearing         = 'gaussian'
   nspin            = 1
   ntyp             = 1
   nat              = 4
   ibrav            = 0
/
&ELECTRONS
   conv_thr         = 1e-10
/
&IONS
/
&CELL
/

ATOMIC_SPECIES
Ag 107.8682 Ag_ONCV_PBE-1.2.upf

K_POINTS automatic
24 24 24  1 1 1

CELL_PARAMETERS angstrom
4.13629123842449 0.00000000000000 0.00000000000000
0.00000000000000 4.13629123842449 0.00000000000000
0.00000000000000 0.00000000000000 4.13629123842449

ATOMIC_POSITIONS angstrom
Ag 1.0340728096 1.0340728096 1.0340728096 
Ag 1.0340728096 3.1022184288 3.1022184288 
Ag 3.1022184288 1.0340728096 3.1022184288 
Ag 3.1022184288 3.1022184288 1.0340728096 

