&CONTROL
   calculation      = 'scf'
   verbosity        = 'high'
   prefix           = 'Hg-104'
   disk_io          = 'nowf'
   pseudo_dir       = './'
/
&SYSTEM
   ecutwfc          = 100
   occupations      = 'smearing'
   degauss          = 0.0007349862
   smearing         = 'gaussian'
   nspin            = 1
   ntyp             = 1
   nat              = 2
   ibrav            = 0
/
&ELECTRONS
   conv_thr         = 1e-10
/
&IONS
/
&CELL
/

ATOMIC_SPECIES
Hg 200.592 Hg_ONCV_PBE-1.2.upf

K_POINTS automatic
24 24 28  1 1 1

CELL_PARAMETERS angstrom
4.15704369184438 0.00000000000000 0.00000000000000
0.00000000000000 4.15704369184438 0.00000000000000
0.00000000000000 0.00000000000000 3.59500364416917

ATOMIC_POSITIONS angstrom
Hg 1.0392609230 1.0392609230 0.8987509110 
Hg 3.1177827689 3.1177827689 2.6962527331 

