&CONTROL
   calculation      = 'scf'
   verbosity        = 'high'
   prefix           = 'Hg-96'
   disk_io          = 'nowf'
   pseudo_dir       = './'
/
&SYSTEM
   ecutwfc          = 100
   occupations      = 'smearing'
   degauss          = 0.0007349862
   smearing         = 'gaussian'
   nspin            = 1
   ntyp             = 1
   nat              = 2
   ibrav            = 0
/
&ELECTRONS
   conv_thr         = 1e-10
/
&IONS
/
&CELL
/

ATOMIC_SPECIES
Hg 200.592 Hg_ONCV_PBE-1.2.upf

K_POINTS automatic
24 24 28  1 1 1

CELL_PARAMETERS angstrom
4.04759658063265 0.00000000000000 0.00000000000000
0.00000000000000 4.04759658063265 0.00000000000000
0.00000000000000 0.00000000000000 3.50035398618702

ATOMIC_POSITIONS angstrom
Hg 1.0118991452 1.0118991452 0.8750884965 
Hg 3.0356974355 3.0356974355 2.6252654896 

