&CONTROL
   calculation      = 'scf'
   verbosity        = 'high'
   prefix           = 'Sn-106'
   disk_io          = 'nowf'
   pseudo_dir       = './'
/
&SYSTEM
   ecutwfc          = 100
   occupations      = 'smearing'
   degauss          = 0.0007349862
   smearing         = 'gaussian'
   nspin            = 1
   ntyp             = 1
   nat              = 2
   ibrav            = 0
/
&ELECTRONS
   conv_thr         = 1e-10
/
&IONS
/
&CELL
/

ATOMIC_SPECIES
Sn 118.71 Sn_ONCV_PBE-1.2.upf

K_POINTS automatic
26 26 26  1 1 1

CELL_PARAMETERS angstrom
4.79877716034549 0.00000000000000 0.00000000000000
2.39938858017274 4.15586292795974 0.00000000000000
2.39938858017274 1.38528764265325 3.91818514405615

ATOMIC_POSITIONS angstrom
Sn 3.5990828703 2.0779314640 1.4693194290 
Sn 5.9984714504 3.4632191066 2.4488657150 

