&CONTROL
   calculation      = 'scf'
   verbosity        = 'high'
   prefix           = 'Sn-100'
   disk_io          = 'nowf'
   pseudo_dir       = './'
/
&SYSTEM
   ecutwfc          = 100
   occupations      = 'smearing'
   degauss          = 0.0007349862
   smearing         = 'gaussian'
   nspin            = 1
   ntyp             = 1
   nat              = 2
   ibrav            = 0
/
&ELECTRONS
   conv_thr         = 1e-10
/
&IONS
/
&CELL
/

ATOMIC_SPECIES
Sn 118.71 Sn_ONCV_PBE-1.2.upf

K_POINTS automatic
26 26 26  1 1 1

CELL_PARAMETERS angstrom
4.70647000000000 0.00000000000000 0.00000000000000
2.35323500000000 4.07592258214935 0.00000000000000
2.35323500000000 1.35864086071645 3.84281666323891

ATOMIC_POSITIONS angstrom
Sn 3.5298525000 2.0379612911 1.4410562487 
Sn 5.8830875000 3.3966021518 2.4017604145 

