&CONTROL
   calculation      = 'scf'
   verbosity        = 'high'
   prefix           = 'Sn-104'
   disk_io          = 'nowf'
   pseudo_dir       = './'
/
&SYSTEM
   ecutwfc          = 100
   occupations      = 'smearing'
   degauss          = 0.0007349862
   smearing         = 'gaussian'
   nspin            = 1
   ntyp             = 1
   nat              = 2
   ibrav            = 0
/
&ELECTRONS
   conv_thr         = 1e-10
/
&IONS
/
&CELL
/

ATOMIC_SPECIES
Sn 118.71 Sn_ONCV_PBE-1.2.upf

K_POINTS automatic
26 26 26  1 1 1

CELL_PARAMETERS angstrom
4.76840433929755 0.00000000000000 0.00000000000000
2.38420216964878 4.12955929334763 0.00000000000000
2.38420216964878 1.37651976444921 3.89338583951738

ATOMIC_POSITIONS angstrom
Sn 3.5763032545 2.0647796467 1.4600196898 
Sn 5.9605054241 3.4412994111 2.4333661497 

