&CONTROL
   calculation      = 'scf'
   verbosity        = 'high'
   prefix           = 'Sn-94'
   disk_io          = 'nowf'
   pseudo_dir       = './'
/
&SYSTEM
   ecutwfc          = 100
   occupations      = 'smearing'
   degauss          = 0.0007349862
   smearing         = 'gaussian'
   nspin            = 1
   ntyp             = 1
   nat              = 2
   ibrav            = 0
/
&ELECTRONS
   conv_thr         = 1e-10
/
&IONS
/
&CELL
/

ATOMIC_SPECIES
Sn 118.71 Sn_ONCV_PBE-1.2.upf

K_POINTS automatic
26 26 26  1 1 1

CELL_PARAMETERS angstrom
4.61039263308653 0.00000000000000 0.00000000000000
2.30519631654326 3.99271714167356 0.00000000000000
2.30519631654326 1.33090571389119 3.76436982164953

ATOMIC_POSITIONS angstrom
Sn 3.4577944748 1.9963585708 1.4116386831 
Sn 5.7629907914 3.3272642847 2.3527311385 

