&CONTROL
   calculation      = 'scf'
   verbosity        = 'high'
   prefix           = 'Sn-96'
   disk_io          = 'nowf'
   pseudo_dir       = './'
/
&SYSTEM
   ecutwfc          = 100
   occupations      = 'smearing'
   degauss          = 0.0007349862
   smearing         = 'gaussian'
   nspin            = 1
   ntyp             = 1
   nat              = 2
   ibrav            = 0
/
&ELECTRONS
   conv_thr         = 1e-10
/
&IONS
/
&CELL
/

ATOMIC_SPECIES
Sn 118.71 Sn_ONCV_PBE-1.2.upf

K_POINTS automatic
26 26 26  1 1 1

CELL_PARAMETERS angstrom
4.64286125658965 0.00000000000000 0.00000000000000
2.32143062829483 4.02083579445318 0.00000000000000
2.32143062829483 1.34027859815106 3.79088034172725

ATOMIC_POSITIONS angstrom
Sn 3.4821459424 2.0104178972 1.4215801281 
Sn 5.8035765707 3.3506964954 2.3693002136 

