&CONTROL
   calculation      = 'scf'
   verbosity        = 'high'
   prefix           = 'Mg-102'
   disk_io          = 'nowf'
   pseudo_dir       = './'
/
&SYSTEM
   ecutwfc          = 100
   occupations      = 'smearing'
   degauss          = 0.0007349862
   smearing         = 'gaussian'
   nspin            = 1
   ntyp             = 1
   nat              = 2
   ibrav            = 0
/
&ELECTRONS
   conv_thr         = 1e-10
/
&IONS
/
&CELL
/

ATOMIC_SPECIES
Mg 24.305 Mg_ONCV_PBE-1.2.upf

K_POINTS automatic
36 36 20  1 1 1

CELL_PARAMETERS angstrom
3.21520326547048 0.00000000000000 0.00000000000000
1.60760163273524 2.78444770622812 0.00000000000000
0.00000000000000 0.00000000000000 5.20623252139071

ATOMIC_POSITIONS angstrom
Mg 1.6076096707 0.9281538762 1.3015581303 
Mg 3.2151952275 1.8562938301 3.9046743910 

