&CONTROL
   calculation      = 'scf'
   verbosity        = 'high'
   prefix           = 'Mg-96'
   disk_io          = 'nowf'
   pseudo_dir       = './'
/
&SYSTEM
   ecutwfc          = 100
   occupations      = 'smearing'
   degauss          = 0.0007349862
   smearing         = 'gaussian'
   nspin            = 1
   ntyp             = 1
   nat              = 2
   ibrav            = 0
/
&ELECTRONS
   conv_thr         = 1e-10
/
&IONS
/
&CELL
/

ATOMIC_SPECIES
Mg 24.305 Mg_ONCV_PBE-1.2.upf

K_POINTS automatic
36 36 20  1 1 1

CELL_PARAMETERS angstrom
3.15088187040609 0.00000000000000 0.00000000000000
1.57544093520305 2.72874374409551 0.00000000000000
0.00000000000000 0.00000000000000 5.10207980967828

ATOMIC_POSITIONS angstrom
Mg 1.5754488124 0.9095857959 1.2755199524 
Mg 3.1508739932 1.8191579482 3.8265598573 

