&CONTROL
   calculation      = 'scf'
   verbosity        = 'high'
   prefix           = 'K-94'
   disk_io          = 'nowf'
   pseudo_dir       = './'
/
&SYSTEM
   ecutwfc          = 100
   occupations      = 'smearing'
   degauss          = 0.0007349862
   smearing         = 'gaussian'
   nspin            = 1
   ntyp             = 1
   nat              = 2
   ibrav            = 0
/
&ELECTRONS
   conv_thr         = 1e-10
/
&IONS
/
&CELL
/

ATOMIC_SPECIES
K 39.0983 K_ONCV_PBE-1.2.upf

K_POINTS automatic
20 20 20  1 1 1

CELL_PARAMETERS angstrom
5.17798441619850 0.00000000000000 0.00000000000000
0.00000000000000 5.17798441619850 0.00000000000000
0.00000000000000 0.00000000000000 5.17798441619850

ATOMIC_POSITIONS angstrom
K 1.2944961040 1.2944961040 1.2944961040 
K 3.8834883121 3.8834883121 3.8834883121 

