&CONTROL
   calculation      = 'scf'
   verbosity        = 'high'
   prefix           = 'Au-106'
   disk_io          = 'nowf'
   pseudo_dir       = './'
/
&SYSTEM
   ecutwfc          = 100
   occupations      = 'smearing'
   degauss          = 0.0007349862
   smearing         = 'gaussian'
   nspin            = 1
   ntyp             = 1
   nat              = 4
   ibrav            = 0
/
&ELECTRONS
   conv_thr         = 1e-10
/
&IONS
/
&CELL
/

ATOMIC_SPECIES
Au 196.966569 Au_ONCV_PBE-1.2.upf

K_POINTS automatic
24 24 24  1 1 1

CELL_PARAMETERS angstrom
4.25596588207257 0.00000000000000 0.00000000000000
0.00000000000000 4.25596588207257 0.00000000000000
0.00000000000000 0.00000000000000 4.25596588207257

ATOMIC_POSITIONS angstrom
Au 1.0639914705 1.0639914705 1.0639914705 
Au 1.0639914705 3.1919744116 3.1919744116 
Au 3.1919744116 1.0639914705 3.1919744116 
Au 3.1919744116 3.1919744116 1.0639914705 

