&CONTROL
   calculation      = 'scf'
   verbosity        = 'high'
   prefix           = 'Os-100'
   disk_io          = 'nowf'
   pseudo_dir       = './'
/
&SYSTEM
   ecutwfc          = 100
   occupations      = 'smearing'
   degauss          = 0.0007349862
   smearing         = 'gaussian'
   nspin            = 1
   ntyp             = 1
   nat              = 2
   ibrav            = 0
/
&ELECTRONS
   conv_thr         = 1e-10
/
&IONS
/
&CELL
/

ATOMIC_SPECIES
Os 190.23 Os_ONCV_PBE-1.2.upf

K_POINTS automatic
42 42 24  1 1 1

CELL_PARAMETERS angstrom
2.75895000000000 0.00000000000000 0.00000000000000
1.37947500000000 2.38932078777108 0.00000000000000
0.00000000000000 0.00000000000000 4.35694000000000

ATOMIC_POSITIONS angstrom
Os 1.3794818974 0.7964442448 1.0892350000 
Os 2.7589431026 1.5928765430 3.2677050000 

