&CONTROL
   calculation      = 'scf'
   verbosity        = 'high'
   prefix           = 'Os-104'
   disk_io          = 'nowf'
   pseudo_dir       = './'
/
&SYSTEM
   ecutwfc          = 100
   occupations      = 'smearing'
   degauss          = 0.0007349862
   smearing         = 'gaussian'
   nspin            = 1
   ntyp             = 1
   nat              = 2
   ibrav            = 0
/
&ELECTRONS
   conv_thr         = 1e-10
/
&IONS
/
&CELL
/

ATOMIC_SPECIES
Os 190.23 Os_ONCV_PBE-1.2.upf

K_POINTS automatic
42 42 24  1 1 1

CELL_PARAMETERS angstrom
2.79525613716968 0.00000000000000 0.00000000000000
1.39762806858484 2.42076282487330 0.00000000000000
0.00000000000000 0.00000000000000 4.41427473288028

ATOMIC_POSITIONS angstrom
Os 1.3976350567 0.8069249762 1.1035686832 
Os 2.7952491490 1.6138378486 3.3107060497 

