&CONTROL
   calculation      = 'scf'
   verbosity        = 'high'
   prefix           = 'Os-96'
   disk_io          = 'nowf'
   pseudo_dir       = './'
/
&SYSTEM
   ecutwfc          = 100
   occupations      = 'smearing'
   degauss          = 0.0007349862
   smearing         = 'gaussian'
   nspin            = 1
   ntyp             = 1
   nat              = 2
   ibrav            = 0
/
&ELECTRONS
   conv_thr         = 1e-10
/
&IONS
/
&CELL
/

ATOMIC_SPECIES
Os 190.23 Os_ONCV_PBE-1.2.upf

K_POINTS automatic
42 42 24  1 1 1

CELL_PARAMETERS angstrom
2.72166232098962 0.00000000000000 0.00000000000000
1.36083116049481 2.35702871049993 0.00000000000000
0.00000000000000 0.00000000000000 4.29805521405336

ATOMIC_POSITIONS angstrom
Os 1.3608379647 0.7856801652 1.0745138035 
Os 2.7216555168 1.5713485453 3.2235414105 

