&CONTROL
   calculation      = 'scf'
   verbosity        = 'high'
   prefix           = 'Os-98'
   disk_io          = 'nowf'
   pseudo_dir       = './'
/
&SYSTEM
   ecutwfc          = 100
   occupations      = 'smearing'
   degauss          = 0.0007349862
   smearing         = 'gaussian'
   nspin            = 1
   ntyp             = 1
   nat              = 2
   ibrav            = 0
/
&ELECTRONS
   conv_thr         = 1e-10
/
&IONS
/
&CELL
/

ATOMIC_SPECIES
Os 190.23 Os_ONCV_PBE-1.2.upf

K_POINTS automatic
42 42 24  1 1 1

CELL_PARAMETERS angstrom
2.74043299911898 0.00000000000000 0.00000000000000
1.37021649955949 2.37328459460622 0.00000000000000
0.00000000000000 0.00000000000000 4.32769791086517

ATOMIC_POSITIONS angstrom
Os 1.3702233506 0.7910988203 1.0819244777 
Os 2.7404261480 1.5821857743 3.2457734331 

