&CONTROL
   calculation      = 'scf'
   verbosity        = 'high'
   prefix           = 'Zr-106'
   disk_io          = 'nowf'
   pseudo_dir       = './'
/
&SYSTEM
   ecutwfc          = 100
   occupations      = 'smearing'
   degauss          = 0.0007349862
   smearing         = 'gaussian'
   nspin            = 1
   ntyp             = 1
   nat              = 2
   ibrav            = 0
/
&ELECTRONS
   conv_thr         = 1e-10
/
&IONS
/
&CELL
/

ATOMIC_SPECIES
Zr 91.224 Zr_ONCV_PBE-1.2.upf

K_POINTS automatic
36 36 20  1 1 1

CELL_PARAMETERS angstrom
3.29949768174296 0.00000000000000 0.00000000000000
1.64974884087148 2.85744881211727 0.00000000000000
0.00000000000000 0.00000000000000 5.29131133034476

ATOMIC_POSITIONS angstrom
Zr 1.6497570896 0.9524876998 1.3228278326 
Zr 3.2994894330 1.9049611123 3.9684834978 

