&CONTROL
   calculation      = 'scf'
   verbosity        = 'high'
   prefix           = 'Zr-104'
   disk_io          = 'nowf'
   pseudo_dir       = './'
/
&SYSTEM
   ecutwfc          = 100
   occupations      = 'smearing'
   degauss          = 0.0007349862
   smearing         = 'gaussian'
   nspin            = 1
   ntyp             = 1
   nat              = 2
   ibrav            = 0
/
&ELECTRONS
   conv_thr         = 1e-10
/
&IONS
/
&CELL
/

ATOMIC_SPECIES
Zr 91.224 Zr_ONCV_PBE-1.2.upf

K_POINTS automatic
36 36 20  1 1 1

CELL_PARAMETERS angstrom
3.27861422554421 0.00000000000000 0.00000000000000
1.63930711277211 2.83936320853033 0.00000000000000
0.00000000000000 0.00000000000000 5.25782112090692

ATOMIC_POSITIONS angstrom
Zr 1.6393153093 0.9464591351 1.3144552802 
Zr 3.2786060290 1.8929040734 3.9433658407 

