&CONTROL
   calculation      = 'scf'
   verbosity        = 'high'
   prefix           = 'Zr-100'
   disk_io          = 'nowf'
   pseudo_dir       = './'
/
&SYSTEM
   ecutwfc          = 100
   occupations      = 'smearing'
   degauss          = 0.0007349862
   smearing         = 'gaussian'
   nspin            = 1
   ntyp             = 1
   nat              = 2
   ibrav            = 0
/
&ELECTRONS
   conv_thr         = 1e-10
/
&IONS
/
&CELL
/

ATOMIC_SPECIES
Zr 91.224 Zr_ONCV_PBE-1.2.upf

K_POINTS automatic
36 36 20  1 1 1

CELL_PARAMETERS angstrom
3.23603000000000 0.00000000000000 0.00000000000000
1.61801500000000 2.80248418740856 0.00000000000000
0.00000000000000 0.00000000000000 5.18953000000000

ATOMIC_POSITIONS angstrom
Zr 1.6180230901 0.9341660666 1.2973825000 
Zr 3.2360219099 1.8683181208 3.8921475000 

