&CONTROL
   calculation      = 'scf'
   verbosity        = 'high'
   prefix           = 'Zr-102'
   disk_io          = 'nowf'
   pseudo_dir       = './'
/
&SYSTEM
   ecutwfc          = 100
   occupations      = 'smearing'
   degauss          = 0.0007349862
   smearing         = 'gaussian'
   nspin            = 1
   ntyp             = 1
   nat              = 2
   ibrav            = 0
/
&ELECTRONS
   conv_thr         = 1e-10
/
&IONS
/
&CELL
/

ATOMIC_SPECIES
Zr 91.224 Zr_ONCV_PBE-1.2.upf

K_POINTS automatic
36 36 20  1 1 1

CELL_PARAMETERS angstrom
3.25746128681781 0.00000000000000 0.00000000000000
1.62873064340891 2.82104422622857 0.00000000000000
0.00000000000000 0.00000000000000 5.22389874994349

ATOMIC_POSITIONS angstrom
Zr 1.6287387871 0.9403527771 1.3059746875 
Zr 3.2574531432 1.8806914491 3.9179240625 

