&CONTROL
   calculation      = 'scf'
   verbosity        = 'high'
   prefix           = 'Zr-96'
   disk_io          = 'nowf'
   pseudo_dir       = './'
/
&SYSTEM
   ecutwfc          = 100
   occupations      = 'smearing'
   degauss          = 0.0007349862
   smearing         = 'gaussian'
   nspin            = 1
   ntyp             = 1
   nat              = 2
   ibrav            = 0
/
&ELECTRONS
   conv_thr         = 1e-10
/
&IONS
/
&CELL
/

ATOMIC_SPECIES
Zr 91.224 Zr_ONCV_PBE-1.2.upf

K_POINTS automatic
36 36 20  1 1 1

CELL_PARAMETERS angstrom
3.19229450355825 0.00000000000000 0.00000000000000
1.59614725177913 2.76460813644288 0.00000000000000
0.00000000000000 0.00000000000000 5.11939261844008

ATOMIC_POSITIONS angstrom
Zr 1.5961552325 0.9215406532 1.2798481546 
Zr 3.1922865228 1.8430674833 3.8395444638 

