&CONTROL
   calculation      = 'scf'
   verbosity        = 'high'
   prefix           = 'Zr-94'
   disk_io          = 'nowf'
   pseudo_dir       = './'
/
&SYSTEM
   ecutwfc          = 100
   occupations      = 'smearing'
   degauss          = 0.0007349862
   smearing         = 'gaussian'
   nspin            = 1
   ntyp             = 1
   nat              = 2
   ibrav            = 0
/
&ELECTRONS
   conv_thr         = 1e-10
/
&IONS
/
&CELL
/

ATOMIC_SPECIES
Zr 91.224 Zr_ONCV_PBE-1.2.upf

K_POINTS automatic
36 36 20  1 1 1

CELL_PARAMETERS angstrom
3.16997003538682 0.00000000000000 0.00000000000000
1.58498501769341 2.74527457988044 0.00000000000000
0.00000000000000 0.00000000000000 5.08359149876267

ATOMIC_POSITIONS angstrom
Zr 1.5849929426 0.9150961021 1.2708978747 
Zr 3.1699621105 1.8301784778 3.8126936241 

