&CONTROL
   calculation      = 'scf'
   verbosity        = 'high'
   prefix           = 'Co-100'
   disk_io          = 'nowf'
   pseudo_dir       = './'
/
&SYSTEM
   ecutwfc          = 100
   occupations      = 'smearing'
   degauss          = 0.0007349862
   smearing         = 'gaussian'
   nspin            = 2
   starting_magnetization(1) = 0.058823529411764705
   ntyp             = 1
   nat              = 2
   ibrav            = 0
/
&ELECTRONS
   conv_thr         = 1e-10
/
&IONS
/
&CELL
/

ATOMIC_SPECIES
Co  58.933194 Co_ONCV_PBE-1.2.upf

K_POINTS automatic
46 46 24  1 1 1

CELL_PARAMETERS angstrom
2.49680000000000 0.00000000000000 0.00000000000000
1.24840000000000 2.16229222816899 0.00000000000000
0.00000000000000 0.00000000000000 4.03081000000000

ATOMIC_POSITIONS angstrom
Co  1.2484062420 0.7207676799 1.0077025000
Co  2.4967937580 1.4415245483 3.0231075000

