&CONTROL
   calculation      = 'scf'
   verbosity        = 'high'
   prefix           = 'Co-106'
   disk_io          = 'nowf'
   pseudo_dir       = './'
/
&SYSTEM
   ecutwfc          = 100
   occupations      = 'smearing'
   degauss          = 0.0007349862
   smearing         = 'gaussian'
   nspin            = 2
   starting_magnetization(1) = 0.058823529411764705
   ntyp             = 1
   nat              = 2
   ibrav            = 0
/
&ELECTRONS
   conv_thr         = 1e-10
/
&IONS
/
&CELL
/

ATOMIC_SPECIES
Co  58.933194 Co_ONCV_PBE-1.2.upf

K_POINTS automatic
46 46 24  1 1 1

CELL_PARAMETERS angstrom
2.54576929502379 0.00000000000000 0.00000000000000
1.27288464751189 2.20470088166500 0.00000000000000
0.00000000000000 0.00000000000000 4.10986556074769

ATOMIC_POSITIONS angstrom
Co  1.2728910119 0.7349039684 1.0274663902
Co  2.5457629306 1.4697969133 3.0823991706

