&CONTROL
   calculation      = 'scf'
   verbosity        = 'high'
   prefix           = 'Co-104'
   disk_io          = 'nowf'
   pseudo_dir       = './'
/
&SYSTEM
   ecutwfc          = 100
   occupations      = 'smearing'
   degauss          = 0.0007349862
   smearing         = 'gaussian'
   nspin            = 2
   starting_magnetization(1) = 0.058823529411764705
   ntyp             = 1
   nat              = 2
   ibrav            = 0
/
&ELECTRONS
   conv_thr         = 1e-10
/
&IONS
/
&CELL
/

ATOMIC_SPECIES
Co  58.933194 Co_ONCV_PBE-1.2.upf

K_POINTS automatic
46 46 24  1 1 1

CELL_PARAMETERS angstrom
2.52965639945822 0.00000000000000 0.00000000000000
1.26482819972911 2.19074670477669 0.00000000000000
0.00000000000000 0.00000000000000 4.08385305651241

ATOMIC_POSITIONS angstrom
Co  1.2648345239 0.7302525528 1.0209632641
Co  2.5296500753 1.4604941519 3.0628897924

