&CONTROL
   calculation      = 'scf'
   verbosity        = 'high'
   prefix           = 'Co-98'
   disk_io          = 'nowf'
   pseudo_dir       = './'
/
&SYSTEM
   ecutwfc          = 100
   occupations      = 'smearing'
   degauss          = 0.0007349862
   smearing         = 'gaussian'
   nspin            = 2
   starting_magnetization(1) = 0.058823529411764705
   ntyp             = 1
   nat              = 2
   ibrav            = 0
/
&ELECTRONS
   conv_thr         = 1e-10
/
&IONS
/
&CELL
/

ATOMIC_SPECIES
Co  58.933194 Co_ONCV_PBE-1.2.upf

K_POINTS automatic
46 46 24  1 1 1

CELL_PARAMETERS angstrom
2.48004244810536 0.00000000000000 0.00000000000000
1.24002122405268 2.14777976252299 0.00000000000000
0.00000000000000 0.00000000000000 4.00375676876304

ATOMIC_POSITIONS angstrom
Co  1.2400274242 0.7159301671 1.0009391922
Co  2.4800362480 1.4318495954 3.0028175766

