&CONTROL
   calculation      = 'scf'
   verbosity        = 'high'
   prefix           = 'N-106'
   disk_io          = 'nowf'
   pseudo_dir       = './'
/
&SYSTEM
   ecutwfc          = 100
   occupations      = 'smearing'
   degauss          = 0.0007349862
   smearing         = 'gaussian'
   nspin            = 1
   ntyp             = 1
   nat              = 8
   ibrav            = 0
/
&ELECTRONS
   conv_thr         = 1e-10
/
&IONS
/
&CELL
/

ATOMIC_SPECIES
N 14.007 N_ONCV_PBE-1.2.upf

K_POINTS automatic
16 16 16  1 1 1

CELL_PARAMETERS angstrom
6.31159709722978 0.00000000000000 0.00000000000000
0.00000000000000 6.31159709722978 0.00000000000000
0.00000000000000 0.00000000000000 6.31159709722978

ATOMIC_POSITIONS angstrom
N 0.3275087734 0.3275087734 0.3275087734 
N 5.9840883239 5.9840883239 5.9840883239 
N 2.8282897752 5.9840883239 3.4833073220 
N 3.4833073220 0.3275087734 2.8282897752 
N 5.9840883239 3.4833073220 2.8282897752 
N 0.3275087734 2.8282897752 3.4833073220 
N 3.4833073220 2.8282897752 5.9840883239 
N 2.8282897752 3.4833073220 0.3275087734 

