&CONTROL
   calculation      = 'scf'
   verbosity        = 'high'
   prefix           = 'N-102'
   disk_io          = 'nowf'
   pseudo_dir       = './'
/
&SYSTEM
   ecutwfc          = 100
   occupations      = 'smearing'
   degauss          = 0.0007349862
   smearing         = 'gaussian'
   nspin            = 1
   ntyp             = 1
   nat              = 8
   ibrav            = 0
/
&ELECTRONS
   conv_thr         = 1e-10
/
&IONS
/
&CELL
/

ATOMIC_SPECIES
N 14.007 N_ONCV_PBE-1.2.upf

K_POINTS automatic
16 16 16  1 1 1

CELL_PARAMETERS angstrom
6.23118583049192 0.00000000000000 0.00000000000000
0.00000000000000 6.23118583049192 0.00000000000000
0.00000000000000 0.00000000000000 6.23118583049192

ATOMIC_POSITIONS angstrom
N 0.3233362327 0.3233362327 0.3233362327 
N 5.9078495977 5.9078495977 5.9078495977 
N 2.7922566825 5.9078495977 3.4389291480 
N 3.4389291480 0.3233362327 2.7922566825 
N 5.9078495977 3.4389291480 2.7922566825 
N 0.3233362327 2.7922566825 3.4389291480 
N 3.4389291480 2.7922566825 5.9078495977 
N 2.7922566825 3.4389291480 0.3233362327 

