&CONTROL
   calculation      = 'scf'
   verbosity        = 'high'
   prefix           = 'N-100'
   disk_io          = 'nowf'
   pseudo_dir       = './'
/
&SYSTEM
   ecutwfc          = 100
   occupations      = 'smearing'
   degauss          = 0.0007349862
   smearing         = 'gaussian'
   nspin            = 1
   ntyp             = 1
   nat              = 8
   ibrav            = 0
/
&ELECTRONS
   conv_thr         = 1e-10
/
&IONS
/
&CELL
/

ATOMIC_SPECIES
N 14.007 N_ONCV_PBE-1.2.upf

K_POINTS automatic
16 16 16  1 1 1

CELL_PARAMETERS angstrom
6.19019000000000 0.00000000000000 0.00000000000000
0.00000000000000 6.19019000000000 0.00000000000000
0.00000000000000 0.00000000000000 6.19019000000000

ATOMIC_POSITIONS angstrom
N 0.3212089591 0.3212089591 0.3212089591 
N 5.8689810409 5.8689810409 5.8689810409 
N 2.7738860409 5.8689810409 3.4163039591 
N 3.4163039591 0.3212089591 2.7738860409 
N 5.8689810409 3.4163039591 2.7738860409 
N 0.3212089591 2.7738860409 3.4163039591 
N 3.4163039591 2.7738860409 5.8689810409 
N 2.7738860409 3.4163039591 0.3212089591 

