&CONTROL
   calculation      = 'scf'
   verbosity        = 'high'
   prefix           = 'N-104'
   disk_io          = 'nowf'
   pseudo_dir       = './'
/
&SYSTEM
   ecutwfc          = 100
   occupations      = 'smearing'
   degauss          = 0.0007349862
   smearing         = 'gaussian'
   nspin            = 1
   ntyp             = 1
   nat              = 8
   ibrav            = 0
/
&ELECTRONS
   conv_thr         = 1e-10
/
&IONS
/
&CELL
/

ATOMIC_SPECIES
N 14.007 N_ONCV_PBE-1.2.upf

K_POINTS automatic
16 16 16  1 1 1

CELL_PARAMETERS angstrom
6.27164920993362 0.00000000000000 0.00000000000000
0.00000000000000 6.27164920993362 0.00000000000000
0.00000000000000 0.00000000000000 6.27164920993362

ATOMIC_POSITIONS angstrom
N 0.3254358775 0.3254358775 0.3254358775 
N 5.9462133324 5.9462133324 5.9462133324 
N 2.8103887275 5.9462133324 3.4612604825 
N 3.4612604825 0.3254358775 2.8103887275 
N 5.9462133324 3.4612604825 2.8103887275 
N 0.3254358775 2.8103887275 3.4612604825 
N 3.4612604825 2.8103887275 5.9462133324 
N 2.8103887275 3.4612604825 0.3254358775 

