&CONTROL
   calculation      = 'scf'
   verbosity        = 'high'
   prefix           = 'N-94'
   disk_io          = 'nowf'
   pseudo_dir       = './'
/
&SYSTEM
   ecutwfc          = 100
   occupations      = 'smearing'
   degauss          = 0.0007349862
   smearing         = 'gaussian'
   nspin            = 1
   ntyp             = 1
   nat              = 8
   ibrav            = 0
/
&ELECTRONS
   conv_thr         = 1e-10
/
&IONS
/
&CELL
/

ATOMIC_SPECIES
N 14.007 N_ONCV_PBE-1.2.upf

K_POINTS automatic
16 16 16  1 1 1

CELL_PARAMETERS angstrom
6.06382413430998 0.00000000000000 0.00000000000000
0.00000000000000 6.06382413430998 0.00000000000000
0.00000000000000 0.00000000000000 6.06382413430998

ATOMIC_POSITIONS angstrom
N 0.3146518343 0.3146518343 0.3146518343 
N 5.7491723000 5.7491723000 5.7491723000 
N 2.7172602328 5.7491723000 3.3465639015 
N 3.3465639015 0.3146518343 2.7172602328 
N 5.7491723000 3.3465639015 2.7172602328 
N 0.3146518343 2.7172602328 3.3465639015 
N 3.3465639015 2.7172602328 5.7491723000 
N 2.7172602328 3.3465639015 0.3146518343 

