&CONTROL
   calculation      = 'scf'
   verbosity        = 'high'
   prefix           = 'N-96'
   disk_io          = 'nowf'
   pseudo_dir       = './'
/
&SYSTEM
   ecutwfc          = 100
   occupations      = 'smearing'
   degauss          = 0.0007349862
   smearing         = 'gaussian'
   nspin            = 1
   ntyp             = 1
   nat              = 8
   ibrav            = 0
/
&ELECTRONS
   conv_thr         = 1e-10
/
&IONS
/
&CELL
/

ATOMIC_SPECIES
N 14.007 N_ONCV_PBE-1.2.upf

K_POINTS automatic
16 16 16  1 1 1

CELL_PARAMETERS angstrom
6.10652852815989 0.00000000000000 0.00000000000000
0.00000000000000 6.10652852815989 0.00000000000000
0.00000000000000 0.00000000000000 6.10652852815989

ATOMIC_POSITIONS angstrom
N 0.3168677653 0.3168677653 0.3168677653 
N 5.7896607628 5.7896607628 5.7896607628 
N 2.7363964988 5.7896607628 3.3701320294 
N 3.3701320294 0.3168677653 2.7363964988 
N 5.7896607628 3.3701320294 2.7363964988 
N 0.3168677653 2.7363964988 3.3701320294 
N 3.3701320294 2.7363964988 5.7896607628 
N 2.7363964988 3.3701320294 0.3168677653 

