&CONTROL
   calculation      = 'scf'
   verbosity        = 'high'
   prefix           = 'N-98'
   disk_io          = 'nowf'
   pseudo_dir       = './'
/
&SYSTEM
   ecutwfc          = 100
   occupations      = 'smearing'
   degauss          = 0.0007349862
   smearing         = 'gaussian'
   nspin            = 1
   ntyp             = 1
   nat              = 8
   ibrav            = 0
/
&ELECTRONS
   conv_thr         = 1e-10
/
&IONS
/
&CELL
/

ATOMIC_SPECIES
N 14.007 N_ONCV_PBE-1.2.upf

K_POINTS automatic
16 16 16  1 1 1

CELL_PARAMETERS angstrom
6.14864384886147 0.00000000000000 0.00000000000000
0.00000000000000 6.14864384886147 0.00000000000000
0.00000000000000 0.00000000000000 6.14864384886147

ATOMIC_POSITIONS angstrom
N 0.3190531293 0.3190531293 0.3190531293 
N 5.8295907195 5.8295907195 5.8295907195 
N 2.7552687951 5.8295907195 3.3933750537 
N 3.3933750537 0.3190531293 2.7552687951 
N 5.8295907195 3.3933750537 2.7552687951 
N 0.3190531293 2.7552687951 3.3933750537 
N 3.3933750537 2.7552687951 5.8295907195 
N 2.7552687951 3.3933750537 0.3190531293 

