&CONTROL
   calculation      = 'scf'
   verbosity        = 'high'
   prefix           = 'Sr-94'
   disk_io          = 'nowf'
   pseudo_dir       = './'
/
&SYSTEM
   ecutwfc          = 100
   occupations      = 'smearing'
   degauss          = 0.0007349862
   smearing         = 'gaussian'
   nspin            = 1
   ntyp             = 1
   nat              = 4
   ibrav            = 0
/
&ELECTRONS
   conv_thr         = 1e-10
/
&IONS
/
&CELL
/

ATOMIC_SPECIES
Sr 87.62 Sr_ONCV_PBE-1.2.upf

K_POINTS automatic
16 16 16  1 1 1

CELL_PARAMETERS angstrom
5.89680470277398 0.00000000000000 0.00000000000000
0.00000000000000 5.89680470277398 0.00000000000000
0.00000000000000 0.00000000000000 5.89680470277398

ATOMIC_POSITIONS angstrom
Sr 1.4742011757 1.4742011757 1.4742011757 
Sr 1.4742011757 4.4226035271 4.4226035271 
Sr 4.4226035271 1.4742011757 4.4226035271 
Sr 4.4226035271 4.4226035271 1.4742011757 

