&CONTROL
   calculation      = 'scf'
   verbosity        = 'high'
   prefix           = 'Cd-100'
   disk_io          = 'nowf'
   pseudo_dir       = './'
/
&SYSTEM
   ecutwfc          = 100
   occupations      = 'smearing'
   degauss          = 0.0007349862
   smearing         = 'gaussian'
   nspin            = 1
   ntyp             = 1
   nat              = 2
   ibrav            = 0
/
&ELECTRONS
   conv_thr         = 1e-10
/
&IONS
/
&CELL
/

ATOMIC_SPECIES
Cd 112.414 Cd_ONCV_PBE-1.2.upf

K_POINTS automatic
38 38 18  1 1 1

CELL_PARAMETERS angstrom
3.03716000000000 0.00000000000000 0.00000000000000
1.51858000000000 2.63025771535795 0.00000000000000
0.00000000000000 0.00000000000000 5.77061000000000

ATOMIC_POSITIONS angstrom
Cd 1.5185875929 0.8767569555 1.4426525000 
Cd 3.0371524071 1.7535007598 4.3279575000 

