&CONTROL
   calculation      = 'scf'
   verbosity        = 'high'
   prefix           = 'Cd-94'
   disk_io          = 'nowf'
   pseudo_dir       = './'
/
&SYSTEM
   ecutwfc          = 100
   occupations      = 'smearing'
   degauss          = 0.0007349862
   smearing         = 'gaussian'
   nspin            = 1
   ntyp             = 1
   nat              = 2
   ibrav            = 0
/
&ELECTRONS
   conv_thr         = 1e-10
/
&IONS
/
&CELL
/

ATOMIC_SPECIES
Cd 112.414 Cd_ONCV_PBE-1.2.upf

K_POINTS automatic
38 38 18  1 1 1

CELL_PARAMETERS angstrom
2.97515974594655 0.00000000000000 0.00000000000000
1.48757987297328 2.57656392030657 0.00000000000000
0.00000000000000 0.00000000000000 5.65280939481511

ATOMIC_POSITIONS angstrom
Cd 1.4875873109 0.8588589344 1.4132023487 
Cd 2.9751523080 1.7177049859 4.2396070461 

