&CONTROL
   calculation      = 'scf'
   verbosity        = 'high'
   prefix           = 'Be-106'
   disk_io          = 'nowf'
   pseudo_dir       = './'
/
&SYSTEM
   ecutwfc          = 100
   occupations      = 'smearing'
   degauss          = 0.0007349862
   smearing         = 'gaussian'
   nspin            = 1
   ntyp             = 1
   nat              = 2
   ibrav            = 0
/
&ELECTRONS
   conv_thr         = 1e-10
/
&IONS
/
&CELL
/

ATOMIC_SPECIES
Be 9.0121831 Be_ONCV_PBE-1.2.upf

K_POINTS automatic
52 52 28  1 1 1

CELL_PARAMETERS angstrom
2.30713911006409 0.00000000000000 0.00000000000000
1.15356955503205 1.99804107938013 0.00000000000000
0.00000000000000 0.00000000000000 3.64323975256617

ATOMIC_POSITIONS angstrom
Be 1.1535753229 0.6660170232 0.9108099381 
Be 2.3071333422 1.3320240562 2.7324298144 

