&CONTROL
   calculation      = 'scf'
   verbosity        = 'high'
   prefix           = 'Be-100'
   disk_io          = 'nowf'
   pseudo_dir       = './'
/
&SYSTEM
   ecutwfc          = 100
   occupations      = 'smearing'
   degauss          = 0.0007349862
   smearing         = 'gaussian'
   nspin            = 1
   ntyp             = 1
   nat              = 2
   ibrav            = 0
/
&ELECTRONS
   conv_thr         = 1e-10
/
&IONS
/
&CELL
/

ATOMIC_SPECIES
Be 9.0121831 Be_ONCV_PBE-1.2.upf

K_POINTS automatic
52 52 28  1 1 1

CELL_PARAMETERS angstrom
2.26276000000000 0.00000000000000 0.00000000000000
1.13138000000000 1.95960764266728 0.00000000000000
0.00000000000000 0.00000000000000 3.57316000000000

ATOMIC_POSITIONS angstrom
Be 1.1313856569 0.6532058136 0.8932900000 
Be 2.2627543431 1.3064018291 2.6798700000 

