&CONTROL
   calculation      = 'scf'
   verbosity        = 'high'
   prefix           = 'Be-98'
   disk_io          = 'nowf'
   pseudo_dir       = './'
/
&SYSTEM
   ecutwfc          = 100
   occupations      = 'smearing'
   degauss          = 0.0007349862
   smearing         = 'gaussian'
   nspin            = 1
   ntyp             = 1
   nat              = 2
   ibrav            = 0
/
&ELECTRONS
   conv_thr         = 1e-10
/
&IONS
/
&CELL
/

ATOMIC_SPECIES
Be 9.0121831 Be_ONCV_PBE-1.2.upf

K_POINTS automatic
52 52 28  1 1 1

CELL_PARAMETERS angstrom
2.24757323368907 0.00000000000000 0.00000000000000
1.12378661684454 1.94645551724068 0.00000000000000
0.00000000000000 0.00000000000000 3.54917833782127

ATOMIC_POSITIONS angstrom
Be 1.1237922358 0.6488217498 0.8872945845 
Be 2.2475676148 1.2976337674 2.6618837534 

