&CONTROL
   calculation      = 'scf'
   verbosity        = 'high'
   prefix           = 'Cu-106'
   disk_io          = 'nowf'
   pseudo_dir       = './'
/
&SYSTEM
   ecutwfc          = 100
   occupations      = 'smearing'
   degauss          = 0.0007349862
   smearing         = 'gaussian'
   nspin            = 1
   ntyp             = 1
   nat              = 4
   ibrav            = 0
/
&ELECTRONS
   conv_thr         = 1e-10
/
&IONS
/
&CELL
/

ATOMIC_SPECIES
Cu 63.546 Cu_ONCV_PBE-1.2.upf

K_POINTS automatic
28 28 28  1 1 1

CELL_PARAMETERS angstrom
3.70821967773913 0.00000000000000 0.00000000000000
0.00000000000000 3.70821967773913 0.00000000000000
0.00000000000000 0.00000000000000 3.70821967773913

ATOMIC_POSITIONS angstrom
Cu 0.9270549194 0.9270549194 0.9270549194 
Cu 0.9270549194 2.7811647583 2.7811647583 
Cu 2.7811647583 0.9270549194 2.7811647583 
Cu 2.7811647583 2.7811647583 0.9270549194 

