&CONTROL
   calculation      = 'scf'
   verbosity        = 'high'
   prefix           = 'Cu-96'
   disk_io          = 'nowf'
   pseudo_dir       = './'
/
&SYSTEM
   ecutwfc          = 100
   occupations      = 'smearing'
   degauss          = 0.0007349862
   smearing         = 'gaussian'
   nspin            = 1
   ntyp             = 1
   nat              = 4
   ibrav            = 0
/
&ELECTRONS
   conv_thr         = 1e-10
/
&IONS
/
&CELL
/

ATOMIC_SPECIES
Cu 63.546 Cu_ONCV_PBE-1.2.upf

K_POINTS automatic
28 28 28  1 1 1

CELL_PARAMETERS angstrom
3.58773681240470 0.00000000000000 0.00000000000000
0.00000000000000 3.58773681240470 0.00000000000000
0.00000000000000 0.00000000000000 3.58773681240470

ATOMIC_POSITIONS angstrom
Cu 0.8969342031 0.8969342031 0.8969342031 
Cu 0.8969342031 2.6908026093 2.6908026093 
Cu 2.6908026093 0.8969342031 2.6908026093 
Cu 2.6908026093 2.6908026093 0.8969342031 

