&CONTROL
   calculation      = 'scf'
   verbosity        = 'high'
   prefix           = 'Re-106'
   disk_io          = 'nowf'
   pseudo_dir       = './'
/
&SYSTEM
   ecutwfc          = 100
   occupations      = 'smearing'
   degauss          = 0.0007349862
   smearing         = 'gaussian'
   nspin            = 1
   ntyp             = 1
   nat              = 2
   ibrav            = 0
/
&ELECTRONS
   conv_thr         = 1e-10
/
&IONS
/
&CELL
/

ATOMIC_SPECIES
Re 186.207 Re_ONCV_PBE-1.2.upf

K_POINTS automatic
42 42 22  1 1 1

CELL_PARAMETERS angstrom
2.82888518742577 0.00000000000000 0.00000000000000
1.41444259371288 2.44988643670022 0.00000000000000
0.00000000000000 0.00000000000000 4.56779407155396

ATOMIC_POSITIONS angstrom
Re 1.4144496659 0.8166328954 1.1419485179 
Re 2.8288781152 1.6332535413 3.4258455537 

