&CONTROL
   calculation      = 'scf'
   verbosity        = 'high'
   prefix           = 'Re-100'
   disk_io          = 'nowf'
   pseudo_dir       = './'
/
&SYSTEM
   ecutwfc          = 100
   occupations      = 'smearing'
   degauss          = 0.0007349862
   smearing         = 'gaussian'
   nspin            = 1
   ntyp             = 1
   nat              = 2
   ibrav            = 0
/
&ELECTRONS
   conv_thr         = 1e-10
/
&IONS
/
&CELL
/

ATOMIC_SPECIES
Re 186.207 Re_ONCV_PBE-1.2.upf

K_POINTS automatic
42 42 22  1 1 1

CELL_PARAMETERS angstrom
2.77447000000000 0.00000000000000 0.00000000000000
1.38723500000000 2.40276150203781 0.00000000000000
0.00000000000000 0.00000000000000 4.47993000000000

ATOMIC_POSITIONS angstrom
Re 1.3872419362 0.8009245053 1.1199825000 
Re 2.7744630638 1.6018369968 3.3599475000 

