&CONTROL
   calculation      = 'scf'
   verbosity        = 'high'
   prefix           = 'Re-104'
   disk_io          = 'nowf'
   pseudo_dir       = './'
/
&SYSTEM
   ecutwfc          = 100
   occupations      = 'smearing'
   degauss          = 0.0007349862
   smearing         = 'gaussian'
   nspin            = 1
   ntyp             = 1
   nat              = 2
   ibrav            = 0
/
&ELECTRONS
   conv_thr         = 1e-10
/
&IONS
/
&CELL
/

ATOMIC_SPECIES
Re 186.207 Re_ONCV_PBE-1.2.upf

K_POINTS automatic
42 42 22  1 1 1

CELL_PARAMETERS angstrom
2.81098037111697 0.00000000000000 0.00000000000000
1.40549018555848 2.43438041092670 0.00000000000000
0.00000000000000 0.00000000000000 4.53888320795613

ATOMIC_POSITIONS angstrom
Re 1.4054972130 0.8114641943 1.1347208020 
Re 2.8109733437 1.6229162167 3.4041624060 

