&CONTROL
   calculation      = 'scf'
   verbosity        = 'high'
   prefix           = 'Re-94'
   disk_io          = 'nowf'
   pseudo_dir       = './'
/
&SYSTEM
   ecutwfc          = 100
   occupations      = 'smearing'
   degauss          = 0.0007349862
   smearing         = 'gaussian'
   nspin            = 1
   ntyp             = 1
   nat              = 2
   ibrav            = 0
/
&ELECTRONS
   conv_thr         = 1e-10
/
&IONS
/
&CELL
/

ATOMIC_SPECIES
Re 186.207 Re_ONCV_PBE-1.2.upf

K_POINTS automatic
42 42 22  1 1 1

CELL_PARAMETERS angstrom
2.71783227104806 0.00000000000000 0.00000000000000
1.35891613552403 2.35371178995278 0.00000000000000
0.00000000000000 0.00000000000000 4.38847719601811

ATOMIC_POSITIONS angstrom
Re 1.3589229301 0.7845745195 1.0971192990 
Re 2.7178254765 1.5691372704 3.2913578970 

