&CONTROL
   calculation      = 'scf'
   verbosity        = 'high'
   prefix           = 'Re-98'
   disk_io          = 'nowf'
   pseudo_dir       = './'
/
&SYSTEM
   ecutwfc          = 100
   occupations      = 'smearing'
   degauss          = 0.0007349862
   smearing         = 'gaussian'
   nspin            = 1
   ntyp             = 1
   nat              = 2
   ibrav            = 0
/
&ELECTRONS
   conv_thr         = 1e-10
/
&IONS
/
&CELL
/

ATOMIC_SPECIES
Re 186.207 Re_ONCV_PBE-1.2.upf

K_POINTS automatic
42 42 22  1 1 1

CELL_PARAMETERS angstrom
2.75584883490663 0.00000000000000 0.00000000000000
1.37792441745331 2.38663510001889 0.00000000000000
0.00000000000000 0.00000000000000 4.44986244975194

ATOMIC_POSITIONS angstrom
Re 1.3779313071 0.7955490111 1.1124656124 
Re 2.7558419453 1.5910860890 3.3373968373 

