&CONTROL
   calculation      = 'scf'
   verbosity        = 'high'
   prefix           = 'B-102'
   disk_io          = 'nowf'
   pseudo_dir       = './'
/
&SYSTEM
   ecutwfc          = 100
   occupations      = 'smearing'
   degauss          = 0.0007349862
   smearing         = 'gaussian'
   nspin            = 1
   ntyp             = 1
   nat              = 12
   ibrav            = 0
/
&ELECTRONS
   conv_thr         = 1e-10
/
&IONS
/
&CELL
/

ATOMIC_SPECIES
B 10.81 B_ONCV_PBE-1.2.upf

K_POINTS automatic
26 26 24  1 1 1

CELL_PARAMETERS angstrom
4.93312571405996 0.00000000000000 0.00000000000000
-2.46656285702998 4.27221218843817 0.00000000000000
2.46656043191801 -1.42406932934034 4.21183410634041

ATOMIC_POSITIONS angstrom
B 6.5208999203 -0.9167018654 2.8415138798 
B -1.5877766313 3.7648447245 1.3703202265 
B 4.9330994123 1.8334492867 2.8415138798 
B 0.0000238766 1.0146935724 1.3703202265 
B 3.3452989044 -0.9167018654 2.8415138798 
B 1.5878243846 3.7648447245 1.3703202265 
B 3.4761021924 0.8412129225 0.3063688129 
B 1.4570210966 2.0069299366 3.9054652934 
B 2.4665873463 2.5897439269 0.3063688129 
B 2.4665359427 0.2583989322 3.9054652934 
B 1.4570725001 0.8412129225 0.3063688129 
B 3.4760507888 2.0069299366 3.9054652934 

