&CONTROL
   calculation      = 'scf'
   verbosity        = 'high'
   prefix           = 'B-100'
   disk_io          = 'nowf'
   pseudo_dir       = './'
/
&SYSTEM
   ecutwfc          = 100
   occupations      = 'smearing'
   degauss          = 0.0007349862
   smearing         = 'gaussian'
   nspin            = 1
   ntyp             = 1
   nat              = 12
   ibrav            = 0
/
&ELECTRONS
   conv_thr         = 1e-10
/
&IONS
/
&CELL
/

ATOMIC_SPECIES
B 10.81 B_ONCV_PBE-1.2.upf

K_POINTS automatic
26 26 24  1 1 1

CELL_PARAMETERS angstrom
4.90067000000000 0.00000000000000 0.00000000000000
-2.45033500000000 4.24410471556429 0.00000000000000
2.45033259084318 -1.41470018092742 4.18412386919122

ATOMIC_POSITIONS angstrom
B 6.4779980209 -0.9106707574 2.8228191683 
B -1.5773304300 3.7400752921 1.3613047008 
B 4.9006438713 1.8213867711 2.8228191683 
B 0.0000237195 1.0080177635 1.3613047008 
B 3.3232897218 -0.9106707574 2.8228191683 
B 1.5773778691 3.7400752921 1.3613047008 
B 3.4532324369 0.8356784667 0.3043531702 
B 1.4474351539 1.9937260680 3.8797706989 
B 2.4503593281 2.5727056447 0.3043531702 
B 2.4503082627 0.2566988900 3.8797706989 
B 1.4474862193 0.8356784667 0.3043531702 
B 3.4531813715 1.9937260680 3.8797706989 

