&CONTROL
   calculation      = 'scf'
   verbosity        = 'high'
   prefix           = 'B-106'
   disk_io          = 'nowf'
   pseudo_dir       = './'
/
&SYSTEM
   ecutwfc          = 100
   occupations      = 'smearing'
   degauss          = 0.0007349862
   smearing         = 'gaussian'
   nspin            = 1
   ntyp             = 1
   nat              = 12
   ibrav            = 0
/
&ELECTRONS
   conv_thr         = 1e-10
/
&IONS
/
&CELL
/

ATOMIC_SPECIES
B 10.81 B_ONCV_PBE-1.2.upf

K_POINTS automatic
26 26 24  1 1 1

CELL_PARAMETERS angstrom
4.99678597045988 0.00000000000000 0.00000000000000
-2.49839298522994 4.32734358769194 0.00000000000000
2.49839052882275 -1.44244644435663 4.26618634763022

ATOMIC_POSITIONS angstrom
B 6.6050498457 -0.9285315813 2.8781826194 
B -1.6082663316 3.8134287246 1.3880037282 
B 4.9967593293 1.8571093064 2.8781826194 
B 0.0000241847 1.0277878369 1.3880037282 
B 3.3884688129 -0.9285315813 2.8781826194 
B 1.6083147011 3.8134287246 1.3880037282 
B 3.5209600715 0.8520684801 0.3103223949 
B 1.4758234426 2.0328286633 3.9558639527 
B 2.4984177905 2.6231636636 0.3103223949 
B 2.4983657236 0.2617334797 3.9558639527 
B 1.4758755095 0.8520684801 0.3103223949 
B 3.5209080046 2.0328286633 3.9558639527 

