&CONTROL
   calculation      = 'scf'
   verbosity        = 'high'
   prefix           = 'B-104'
   disk_io          = 'nowf'
   pseudo_dir       = './'
/
&SYSTEM
   ecutwfc          = 100
   occupations      = 'smearing'
   degauss          = 0.0007349862
   smearing         = 'gaussian'
   nspin            = 1
   ntyp             = 1
   nat              = 12
   ibrav            = 0
/
&ELECTRONS
   conv_thr         = 1e-10
/
&IONS
/
&CELL
/

ATOMIC_SPECIES
B 10.81 B_ONCV_PBE-1.2.upf

K_POINTS automatic
26 26 24  1 1 1

CELL_PARAMETERS angstrom
4.96515989551943 0.00000000000000 0.00000000000000
-2.48257994775971 4.29995460337151 0.00000000000000
2.48257750689982 -1.43331679189272 4.23918444481955

ATOMIC_POSITIONS angstrom
B 6.5632446128 -0.9226546417 2.8599657857 
B -1.5980871581 3.7892924532 1.3792186591 
B 4.9651334230 1.8453551351 2.8599657857 
B 0.0000240317 1.0212826763 1.3792186591 
B 3.3670222332 -0.9226546417 2.8599657857 
B 1.5981352214 3.7892924532 1.3792186591 
B 3.4986749170 0.8466754971 0.3083582765 
B 1.4664825376 2.0199623144 3.9308261683 
B 2.4826045960 2.6065609172 0.3083582765 
B 2.4825528586 0.2600768943 3.9308261683 
B 1.4665342750 0.8466754971 0.3083582765 
B 3.4986231797 2.0199623144 3.9308261683 

