&CONTROL
   calculation      = 'scf'
   verbosity        = 'high'
   prefix           = 'B-94'
   disk_io          = 'nowf'
   pseudo_dir       = './'
/
&SYSTEM
   ecutwfc          = 100
   occupations      = 'smearing'
   degauss          = 0.0007349862
   smearing         = 'gaussian'
   nspin            = 1
   ntyp             = 1
   nat              = 12
   ibrav            = 0
/
&ELECTRONS
   conv_thr         = 1e-10
/
&IONS
/
&CELL
/

ATOMIC_SPECIES
B 10.81 B_ONCV_PBE-1.2.upf

K_POINTS automatic
26 26 24  1 1 1

CELL_PARAMETERS angstrom
4.80062825539909 0.00000000000000 0.00000000000000
-2.40031412769954 4.15746602330098 0.00000000000000
2.40031176772299 -1.38582064523389 4.09870961940493

ATOMIC_POSITIONS angstrom
B 6.3457568735 -0.8920804236 2.7651944447 
B -1.5451309781 3.6637258017 1.3335151747 
B 4.8006026601 1.7842051796 2.7651944447 
B 0.0000232353 0.9874401985 1.3335151747 
B 3.2554484467 -0.8920804236 2.7651944447 
B 1.5451774487 3.6637258017 1.3335151747 
B 3.3827385254 0.8186190173 0.2981401377 
B 1.4178873701 1.9530263607 3.8005694817 
B 2.4003379592 2.5201867113 0.2981401377 
B 2.4002879362 0.2514586667 3.8005694817 
B 1.4179373930 0.8186190173 0.2981401377 
B 3.3826885024 1.9530263607 3.8005694817 

