&CONTROL
   calculation      = 'scf'
   verbosity        = 'high'
   prefix           = 'B-96'
   disk_io          = 'nowf'
   pseudo_dir       = './'
/
&SYSTEM
   ecutwfc          = 100
   occupations      = 'smearing'
   degauss          = 0.0007349862
   smearing         = 'gaussian'
   nspin            = 1
   ntyp             = 1
   nat              = 12
   ibrav            = 0
/
&ELECTRONS
   conv_thr         = 1e-10
/
&IONS
/
&CELL
/

ATOMIC_SPECIES
B 10.81 B_ONCV_PBE-1.2.upf

K_POINTS automatic
26 26 24  1 1 1

CELL_PARAMETERS angstrom
4.83443661052364 0.00000000000000 0.00000000000000
-2.41721830526182 4.18674491769901 0.00000000000000
2.41721592866516 -1.39558026710428 4.12757472267748

ATOMIC_POSITIONS angstrom
B 6.3904467746 -0.8983628871 2.7846682867 
B -1.5560125407 3.6895275377 1.3429064360 
B 4.8344108350 1.7967704188 2.7846682867 
B 0.0000233990 0.9943942318 1.3429064360 
B 3.2783748953 -0.8983628871 2.7846682867 
B 1.5560593386 3.6895275377 1.3429064360 
B 3.4065614125 0.8243841299 0.3002397853 
B 1.4278728214 1.9667805207 3.8273349373 
B 2.4172423046 2.5379350898 0.3002397853 
B 2.4171919294 0.2532295608 3.8273349373 
B 1.4279231966 0.8243841299 0.3002397853 
B 3.4065110373 1.9667805207 3.8273349373 

