&CONTROL
   calculation      = 'scf'
   verbosity        = 'high'
   prefix           = 'B-98'
   disk_io          = 'nowf'
   pseudo_dir       = './'
/
&SYSTEM
   ecutwfc          = 100
   occupations      = 'smearing'
   degauss          = 0.0007349862
   smearing         = 'gaussian'
   nspin            = 1
   ntyp             = 1
   nat              = 12
   ibrav            = 0
/
&ELECTRONS
   conv_thr         = 1e-10
/
&IONS
/
&CELL
/

ATOMIC_SPECIES
B 10.81 B_ONCV_PBE-1.2.upf

K_POINTS automatic
26 26 24  1 1 1

CELL_PARAMETERS angstrom
4.86777860627863 0.00000000000000 0.00000000000000
-2.43388930313931 4.21561993303570 0.00000000000000
2.43388691015182 -1.40520526275326 4.15604165480818

ATOMIC_POSITIONS angstrom
B 6.4345202141 -0.9045586890 2.8038735024 
B -1.5667440008 3.7149733593 1.3521681524 
B 4.8677526530 1.8091623305 2.8038735024 
B 0.0000235603 1.0012523398 1.3521681524 
B 3.3009850918 -0.9045586890 2.8038735024 
B 1.5667911214 3.7149733593 1.3521681524 
B 3.4300556820 0.8300697174 0.3023104700 
B 1.4377205313 1.9803449529 3.8537311848 
B 2.4339134680 2.5554386436 0.3023104700 
B 2.4338627453 0.2549760267 3.8537311848 
B 1.4377712540 0.8300697174 0.3023104700 
B 3.4300049593 1.9803449529 3.8537311848 

