&CONTROL
   calculation      = 'scf'
   verbosity        = 'high'
   prefix           = 'C-96'
   disk_io          = 'nowf'
   pseudo_dir       = './'
/
&SYSTEM
   ecutwfc          = 100
   occupations      = 'smearing'
   degauss          = 0.0007349862
   smearing         = 'gaussian'
   nspin            = 1
   ntyp             = 1
   nat              = 4
   ibrav            = 0
/
&ELECTRONS
   conv_thr         = 1e-10
/
&IONS
/
&CELL
/

ATOMIC_SPECIES
C 12.011 C_ONCV_PBE-1.2.upf

K_POINTS automatic
48 48 12  1 1 1

CELL_PARAMETERS angstrom
2.43520685613199 0.00000000000000 0.00000000000000
-1.21760342806599 2.10895100088034 0.00000000000000
0.00000000000000 0.00000000000000 8.72130521784803

ATOMIC_POSITIONS angstrom
C 0.2029318753 0.3514883186 2.1803263045 
C 0.2029318753 0.3514883186 6.5409789134 
C 0.2029196993 1.7574626823 2.1803263045 
C 1.4205474794 1.0544649557 6.5409789134 

