&CONTROL
   calculation      = 'scf'
   verbosity        = 'high'
   prefix           = 'C-98'
   disk_io          = 'nowf'
   pseudo_dir       = './'
/
&SYSTEM
   ecutwfc          = 100
   occupations      = 'smearing'
   degauss          = 0.0007349862
   smearing         = 'gaussian'
   nspin            = 1
   ntyp             = 1
   nat              = 4
   ibrav            = 0
/
&ELECTRONS
   conv_thr         = 1e-10
/
&IONS
/
&CELL
/

ATOMIC_SPECIES
C 12.011 C_ONCV_PBE-1.2.upf

K_POINTS automatic
48 48 12  1 1 1

CELL_PARAMETERS angstrom
2.45200191690141 0.00000000000000 0.00000000000000
-1.22600095845071 2.12349595016476 0.00000000000000
0.00000000000000 0.00000000000000 8.78145405109955

ATOMIC_POSITIONS angstrom
C 0.2043314497 0.3539124525 2.1953635128 
C 0.2043314497 0.3539124525 6.5860905383 
C 0.2043191897 1.7695834976 2.1953635128 
C 1.4303446682 1.0617373576 6.5860905383 

