
    &control
    calculation = 'md'
    restart_mode='from_scratch',
    prefix='silicon',
    tstress = .true.
    tprnfor = .true.
    verbosity='high'
    pseudo_dir = '/home/sanmitc/qe-7.3/pseudo/',
    outdir='/home/sanmitc/qe-7.3/tempdir/'
    dt           = 20
    nstep        = 3
 /
 &system
    ibrav=  1, celldm(1) =20.5224, 
    nat=  64, 
    ntyp= 1,
    ecutwfc =20.0,
    occupations=smearing,
    smearing=gaussian
    degauss=0.01,
    nosym=.true.
 /
 &electrons
    diagonalization='davidson'
    mixing_mode = 'plain'
    mixing_beta = 0.3
    conv_thr =  1e-8

 /
 &ions
    ion_temperature   = 'initial'
    ion_velocities='from_input'
/
ATOMIC_SPECIES
 Si  28.086  Si_ONCV_PBE-1.2.upf
ATOMIC_POSITIONS alat
   Si 0.000 0.000 0.000
   Si 0.250 0.250 0.000
   Si 0.250 0.000 0.250
   Si 0.000 0.250 0.250
   Si 0.125 0.125 0.125
   Si 0.375 0.375 0.125
   Si 0.375 0.125 0.375
   Si 0.125 0.375 0.375
   Si 0.500 0.000 0.000
   Si 0.750 0.250 0.000
   Si 0.750 0.000 0.250
   Si 0.500 0.250 0.250
   Si 0.625 0.125 0.125
   Si 0.875 0.375 0.125
   Si 0.875 0.125 0.375
   Si 0.625 0.375 0.375
   Si 0.000 0.500 0.000
   Si 0.250 0.750 0.000
   Si 0.250 0.500 0.250
   Si 0.000 0.750 0.250
   Si 0.125 0.625 0.125
   Si 0.375 0.875 0.125
   Si 0.375 0.625 0.375
   Si 0.125 0.875 0.375
   Si 0.000 0.000 0.500
   Si 0.250 0.250 0.500
   Si 0.250 0.000 0.750
   Si 0.000 0.250 0.750
   Si 0.125 0.125 0.625
   Si 0.375 0.375 0.625
   Si 0.375 0.125 0.875
   Si 0.125 0.375 0.875
   Si 0.500 0.500 0.000
   Si 0.750 0.750 0.000
   Si 0.750 0.500 0.250
   Si 0.500 0.750 0.250
   Si 0.625 0.625 0.125
   Si 0.875 0.875 0.125
   Si 0.875 0.625 0.375
   Si 0.625 0.875 0.375
   Si 0.000 0.500 0.500
   Si 0.250 0.750 0.500
   Si 0.250 0.500 0.750
   Si 0.000 0.750 0.750
   Si 0.125 0.625 0.625
   Si 0.375 0.875 0.625
   Si 0.375 0.625 0.875
   Si 0.125 0.875 0.875
   Si 0.500 0.000 0.500
   Si 0.750 0.250 0.500
   Si 0.750 0.000 0.750
   Si 0.500 0.250 0.750
   Si 0.625 0.125 0.625
   Si 0.875 0.375 0.625
   Si 0.875 0.125 0.875
   Si 0.625 0.375 0.875
   Si 0.500 0.500 0.500
   Si 0.750 0.750 0.500
   Si 0.750 0.500 0.750
   Si 0.500 0.750 0.750
   Si 0.625 0.625 0.625
   Si 0.875 0.875 0.625
   Si 0.875 0.625 0.875
   Si 0.625 0.875 0.875

K_POINTS automatic
   1 1 1 0 0 0
ATOMIC_VELOCITIES
   Si -2.34750948e-04 1.82331329e-04 -6.19270033e-05
   Si 3.63748441e-04 -2.87815496e-04 5.40517365e-05
   Si -5.05165158e-04 1.78049563e-04 9.38352961e-05
   Si 5.12264684e-04 7.17466474e-04 3.03161264e-04
   Si 4.53145733e-04 -1.85746395e-04 -2.39916694e-04
   Si 9.06840609e-05 -3.42811524e-05 -1.97946061e-04
   Si 4.13981671e-04 -3.87588446e-04 -6.63613668e-04
   Si 7.45518294e-05 1.18854878e-04 6.71739183e-05
   Si 1.38684327e-04 -3.22553183e-04 3.11349468e-04
   Si -5.10550434e-04 -1.91596313e-04 2.25387106e-04
   Si -1.99613229e-04 -1.13174222e-04 1.87212996e-04
   Si -6.22400908e-04 -9.97806001e-05 3.28728913e-04
   Si 4.40218330e-04 -4.66622249e-05 1.24021589e-04
   Si -7.05563591e-04 -3.56000547e-04 -1.50592590e-04
   Si -2.72046097e-04 1.24704568e-04 1.64648673e-04
   Si 5.82564772e-05 3.09413316e-04 1.01551189e-04
   Si -4.62730546e-04 -9.51864670e-06 -4.84343084e-04
   Si -8.76044635e-05 2.50984893e-04 -1.57079885e-04
   Si -2.23834220e-04 2.87483039e-04 1.53726345e-04
   Si -1.38918835e-04 1.45132682e-04 -5.63358807e-05
   Si 3.12550551e-04 -1.50889428e-04 7.23809556e-04
   Si 1.49375054e-04 3.86128059e-05 -9.43399260e-05
   Si -2.18101558e-04 8.37867603e-05 2.38038500e-05
   Si -6.91348733e-05 3.09844747e-04 -1.14098488e-04
   Si -1.48930410e-04 -2.64001790e-04 4.87608181e-06
   Si 2.22984671e-04 -4.87332459e-05 -1.03114184e-05
   Si -7.05569218e-05 -3.12384274e-04 -3.70256479e-04
   Si -3.17962126e-04 2.23999235e-04 -2.55229061e-04
   Si -1.65387228e-04 -2.50323515e-04 1.45774723e-04
   Si 3.85175297e-04 -5.53088282e-04 1.92647473e-04
   Si -3.90103159e-04 -1.14189081e-04 4.09097102e-04
   Si 1.73325355e-04 3.82902633e-04 -1.23066420e-04
   Si 2.90928947e-04 4.70735841e-05 -1.01049527e-04
   Si -3.54037296e-04 -3.07962101e-05 1.70518996e-04
   Si 7.18929590e-05 6.35114546e-05 2.40382615e-05
   Si 1.64905462e-04 -1.86869209e-04 -4.65828002e-06
   Si -4.06905765e-05 -2.40808994e-04 1.69176475e-04
   Si 1.42299363e-05 3.22396862e-04 1.51752238e-04
   Si 8.88697946e-05 -1.73059268e-04 -1.89686436e-04
   Si 5.73104040e-05 4.14151583e-05 2.90122594e-04
   Si -1.59947470e-04 -9.05486707e-05 2.11963845e-04
   Si -2.94399937e-04 4.81312460e-04 -8.03242933e-05
   Si 2.50693908e-04 3.28130349e-04 2.14775050e-04
   Si 4.54556817e-04 1.74207353e-04 1.23843127e-04
   Si 4.77101969e-04 -8.28056243e-05 2.98566868e-04
   Si -9.45586515e-05 5.12531225e-04 -2.66466457e-04
   Si 6.15684655e-05 9.02169311e-05 -1.08419484e-04
   Si 5.83968394e-05 -5.09424214e-04 -1.96786637e-04
   Si -6.68246906e-05 -8.85716697e-05 6.45388956e-04
   Si 2.48480487e-04 -2.34578916e-04 -2.23260684e-04
   Si 2.14638409e-05 1.33137599e-04 2.22307171e-05
   Si -1.01534449e-04 -2.63264330e-04 1.81070813e-04
   Si 2.92445000e-04 1.97821542e-04 -4.17701643e-04
   Si 4.30100938e-04 -2.90598277e-05 9.27063261e-05
   Si -3.62600555e-04 -3.15790333e-04 3.30797634e-04
   Si 2.51765726e-04 1.30565729e-04 -1.02216739e-04
   Si -2.12512145e-04 1.89058704e-04 -6.93907977e-05
   Si -1.78396193e-06 -2.91304174e-04 2.85471540e-04
   Si -5.53589616e-05 -2.92804105e-04 -2.70111523e-04
   Si 2.46521022e-04 -1.35057704e-04 1.38470036e-04
   Si -3.38005511e-04 -6.97214539e-05 3.74961461e-04
   Si 7.66632343e-05 -5.35226323e-04 -6.05655092e-04
   Si 4.53362845e-05 4.39629074e-04 -3.06132268e-04
   Si -7.09185577e-05 -2.52966849e-04 -2.69036977e-04