&CONTROL
   calculation      = 'scf'
   verbosity        = 'high'
   prefix           = 'O-100'
   disk_io          = 'nowf'
   pseudo_dir       = './'
/
&SYSTEM
   ecutwfc          = 100
   occupations      = 'smearing'
   degauss          = 0.0007349862
   smearing         = 'gaussian'
   nspin            = 2
   starting_magnetization(1) = 0.16666666666666666
   starting_magnetization(2) = -0.16666666666666666
   ntyp             = 2
   nat              = 4
   ibrav            = 0
/
&ELECTRONS
   conv_thr         = 1e-10
   mixing_beta      = 0.2
/
&IONS
/
&CELL
/

ATOMIC_SPECIES
O  15.999 O_ONCV_PBE-1.2.upf
O1 15.999 O_ONCV_PBE-1.2.upf

K_POINTS automatic
26 24 24  1 1 1

CELL_PARAMETERS angstrom
4.27163000000000 0.00000000000000 0.00000000000000
0.00000000000000 4.27682000000000 0.00000000000000
1.80666882186211 0.00000000000000 4.19933056075744

ATOMIC_POSITIONS angstrom
O  4.2710041627 1.0692050000 0.6159158133
O  1.8072946592 1.0692050000 3.5834147474
O1 2.1351891627 3.2076150000 0.6159158133
O1 3.9431096592 3.2076150000 3.5834147474

