&CONTROL
   calculation      = 'scf'
   verbosity        = 'high'
   prefix           = 'O-106'
   disk_io          = 'nowf'
   pseudo_dir       = './'
/
&SYSTEM
   ecutwfc          = 100
   occupations      = 'smearing'
   degauss          = 0.0007349862
   smearing         = 'gaussian'
   nspin            = 2
   starting_magnetization(1) = 0.16666666666666666
   starting_magnetization(2) = -0.16666666666666666
   ntyp             = 2
   nat              = 4
   ibrav            = 0
/
&ELECTRONS
   conv_thr         = 1e-10
   mixing_beta      = 0.2
/
&IONS
/
&CELL
/

ATOMIC_SPECIES
O  15.999 O_ONCV_PBE-1.2.upf
O1 15.999 O_ONCV_PBE-1.2.upf

K_POINTS automatic
26 24 24  1 1 1

CELL_PARAMETERS angstrom
4.35540872064341 0.00000000000000 0.00000000000000
0.00000000000000 4.36070051119178 0.00000000000000
1.84210269664104 0.00000000000000 4.28169128533776

ATOMIC_POSITIONS angstrom
O  4.3547706089 1.0901751278 0.6279956608
O  1.8427408084 1.0901751278 3.6536956245
O1 2.1770662486 3.2705253834 0.6279956608
O1 4.0204451687 3.2705253834 3.6536956245

