&CONTROL
   calculation      = 'scf'
   verbosity        = 'high'
   prefix           = 'O-102'
   disk_io          = 'nowf'
   pseudo_dir       = './'
/
&SYSTEM
   ecutwfc          = 100
   occupations      = 'smearing'
   degauss          = 0.0007349862
   smearing         = 'gaussian'
   nspin            = 2
   starting_magnetization(1) = 0.16666666666666666
   starting_magnetization(2) = -0.16666666666666666
   ntyp             = 2
   nat              = 4
   ibrav            = 0
/
&ELECTRONS
   conv_thr         = 1e-10
   mixing_beta      = 0.2
/
&IONS
/
&CELL
/

ATOMIC_SPECIES
O  15.999 O_ONCV_PBE-1.2.upf
O1 15.999 O_ONCV_PBE-1.2.upf

K_POINTS automatic
26 24 24  1 1 1

CELL_PARAMETERS angstrom
4.29991976483827 0.00000000000000 0.00000000000000
0.00000000000000 4.30514413670088 0.00000000000000
1.81863386474061 0.00000000000000 4.22714150740824

ATOMIC_POSITIONS angstrom
O  4.2992897828 1.0762860342 0.6199948449
O  1.8192638468 1.0762860342 3.6071466625
O1 2.1493299004 3.2288581025 0.6199948449
O1 3.9692237292 3.2288581025 3.6071466625

