&CONTROL
   calculation      = 'scf'
   verbosity        = 'high'
   prefix           = 'O-96'
   disk_io          = 'nowf'
   pseudo_dir       = './'
/
&SYSTEM
   ecutwfc          = 100
   occupations      = 'smearing'
   degauss          = 0.0007349862
   smearing         = 'gaussian'
   nspin            = 2
   starting_magnetization(1) = 0.16666666666666666
   starting_magnetization(2) = -0.16666666666666666
   ntyp             = 2
   nat              = 4
   ibrav            = 0
/
&ELECTRONS
   conv_thr         = 1e-10
   mixing_beta      = 0.2
/
&IONS
/
&CELL
/

ATOMIC_SPECIES
O  15.999 O_ONCV_PBE-1.2.upf
O1 15.999 O_ONCV_PBE-1.2.upf

K_POINTS automatic
26 24 24  1 1 1

CELL_PARAMETERS angstrom
4.21389819322891 0.00000000000000 0.00000000000000
0.00000000000000 4.21901804949522 0.00000000000000
1.78225138511709 0.00000000000000 4.14257589321798

ATOMIC_POSITIONS angstrom
O  4.2132808142 1.0547545124 0.6075916063
O  1.7828687641 1.0547545124 3.5349842870
O1 2.1063317176 3.1642635371 0.6075916063
O1 3.8898178607 3.1642635371 3.5349842870

