&control
    prefix='silicon',
    calculation = 'scf'
    pseudo_dir='./pseudo/',
    outdir='./results/si_6/tempdir/',
    verbosity='high'
 /
&system
    ibrav=  2, celldm(1) =10.2612, nat=  2, ntyp= 1,
    nbnd = 300,
    ecutwfc = 60.0,
    nosym=.true.,
    nosym_evc=.true.,
    noinv=.true.,
    no_t_rev=.true.
/
&electrons
 conv_thr = 1D-10,
 startingwfc="random"
/
ATOMIC_SPECIES
  Si  28.086  Si.pz-vbc.UPF
ATOMIC_POSITIONS crystal
Si -0.125 -0.125 -0.125
Si 0.125 0.125 0.125

K_POINTS crystal
    216
  0.000000000  0.000000000  0.000000000  1.0
  0.000000000  0.000000000  0.166666667  1.0
  0.000000000  0.000000000  0.333333333  1.0
  0.000000000  0.000000000  0.500000000  1.0
  0.000000000  0.000000000  0.666666667  1.0
  0.000000000  0.000000000  0.833333333  1.0
  0.000000000  0.166666667  0.000000000  1.0
  0.000000000  0.166666667  0.166666667  1.0
  0.000000000  0.166666667  0.333333333  1.0
  0.000000000  0.166666667  0.500000000  1.0
  0.000000000  0.166666667  0.666666667  1.0
  0.000000000  0.166666667  0.833333333  1.0
  0.000000000  0.333333333  0.000000000  1.0
  0.000000000  0.333333333  0.166666667  1.0
  0.000000000  0.333333333  0.333333333  1.0
  0.000000000  0.333333333  0.500000000  1.0
  0.000000000  0.333333333  0.666666667  1.0
  0.000000000  0.333333333  0.833333333  1.0
  0.000000000  0.500000000  0.000000000  1.0
  0.000000000  0.500000000  0.166666667  1.0
  0.000000000  0.500000000  0.333333333  1.0
  0.000000000  0.500000000  0.500000000  1.0
  0.000000000  0.500000000  0.666666667  1.0
  0.000000000  0.500000000  0.833333333  1.0
  0.000000000  0.666666667  0.000000000  1.0
  0.000000000  0.666666667  0.166666667  1.0
  0.000000000  0.666666667  0.333333333  1.0
  0.000000000  0.666666667  0.500000000  1.0
  0.000000000  0.666666667  0.666666667  1.0
  0.000000000  0.666666667  0.833333333  1.0
  0.000000000  0.833333333  0.000000000  1.0
  0.000000000  0.833333333  0.166666667  1.0
  0.000000000  0.833333333  0.333333333  1.0
  0.000000000  0.833333333  0.500000000  1.0
  0.000000000  0.833333333  0.666666667  1.0
  0.000000000  0.833333333  0.833333333  1.0
  0.166666667  0.000000000  0.000000000  1.0
  0.166666667  0.000000000  0.166666667  1.0
  0.166666667  0.000000000  0.333333333  1.0
  0.166666667  0.000000000  0.500000000  1.0
  0.166666667  0.000000000  0.666666667  1.0
  0.166666667  0.000000000  0.833333333  1.0
  0.166666667  0.166666667  0.000000000  1.0
  0.166666667  0.166666667  0.166666667  1.0
  0.166666667  0.166666667  0.333333333  1.0
  0.166666667  0.166666667  0.500000000  1.0
  0.166666667  0.166666667  0.666666667  1.0
  0.166666667  0.166666667  0.833333333  1.0
  0.166666667  0.333333333  0.000000000  1.0
  0.166666667  0.333333333  0.166666667  1.0
  0.166666667  0.333333333  0.333333333  1.0
  0.166666667  0.333333333  0.500000000  1.0
  0.166666667  0.333333333  0.666666667  1.0
  0.166666667  0.333333333  0.833333333  1.0
  0.166666667  0.500000000  0.000000000  1.0
  0.166666667  0.500000000  0.166666667  1.0
  0.166666667  0.500000000  0.333333333  1.0
  0.166666667  0.500000000  0.500000000  1.0
  0.166666667  0.500000000  0.666666667  1.0
  0.166666667  0.500000000  0.833333333  1.0
  0.166666667  0.666666667  0.000000000  1.0
  0.166666667  0.666666667  0.166666667  1.0
  0.166666667  0.666666667  0.333333333  1.0
  0.166666667  0.666666667  0.500000000  1.0
  0.166666667  0.666666667  0.666666667  1.0
  0.166666667  0.666666667  0.833333333  1.0
  0.166666667  0.833333333  0.000000000  1.0
  0.166666667  0.833333333  0.166666667  1.0
  0.166666667  0.833333333  0.333333333  1.0
  0.166666667  0.833333333  0.500000000  1.0
  0.166666667  0.833333333  0.666666667  1.0
  0.166666667  0.833333333  0.833333333  1.0
  0.333333333  0.000000000  0.000000000  1.0
  0.333333333  0.000000000  0.166666667  1.0
  0.333333333  0.000000000  0.333333333  1.0
  0.333333333  0.000000000  0.500000000  1.0
  0.333333333  0.000000000  0.666666667  1.0
  0.333333333  0.000000000  0.833333333  1.0
  0.333333333  0.166666667  0.000000000  1.0
  0.333333333  0.166666667  0.166666667  1.0
  0.333333333  0.166666667  0.333333333  1.0
  0.333333333  0.166666667  0.500000000  1.0
  0.333333333  0.166666667  0.666666667  1.0
  0.333333333  0.166666667  0.833333333  1.0
  0.333333333  0.333333333  0.000000000  1.0
  0.333333333  0.333333333  0.166666667  1.0
  0.333333333  0.333333333  0.333333333  1.0
  0.333333333  0.333333333  0.500000000  1.0
  0.333333333  0.333333333  0.666666667  1.0
  0.333333333  0.333333333  0.833333333  1.0
  0.333333333  0.500000000  0.000000000  1.0
  0.333333333  0.500000000  0.166666667  1.0
  0.333333333  0.500000000  0.333333333  1.0
  0.333333333  0.500000000  0.500000000  1.0
  0.333333333  0.500000000  0.666666667  1.0
  0.333333333  0.500000000  0.833333333  1.0
  0.333333333  0.666666667  0.000000000  1.0
  0.333333333  0.666666667  0.166666667  1.0
  0.333333333  0.666666667  0.333333333  1.0
  0.333333333  0.666666667  0.500000000  1.0
  0.333333333  0.666666667  0.666666667  1.0
  0.333333333  0.666666667  0.833333333  1.0
  0.333333333  0.833333333  0.000000000  1.0
  0.333333333  0.833333333  0.166666667  1.0
  0.333333333  0.833333333  0.333333333  1.0
  0.333333333  0.833333333  0.500000000  1.0
  0.333333333  0.833333333  0.666666667  1.0
  0.333333333  0.833333333  0.833333333  1.0
  0.500000000  0.000000000  0.000000000  1.0
  0.500000000  0.000000000  0.166666667  1.0
  0.500000000  0.000000000  0.333333333  1.0
  0.500000000  0.000000000  0.500000000  1.0
  0.500000000  0.000000000  0.666666667  1.0
  0.500000000  0.000000000  0.833333333  1.0
  0.500000000  0.166666667  0.000000000  1.0
  0.500000000  0.166666667  0.166666667  1.0
  0.500000000  0.166666667  0.333333333  1.0
  0.500000000  0.166666667  0.500000000  1.0
  0.500000000  0.166666667  0.666666667  1.0
  0.500000000  0.166666667  0.833333333  1.0
  0.500000000  0.333333333  0.000000000  1.0
  0.500000000  0.333333333  0.166666667  1.0
  0.500000000  0.333333333  0.333333333  1.0
  0.500000000  0.333333333  0.500000000  1.0
  0.500000000  0.333333333  0.666666667  1.0
  0.500000000  0.333333333  0.833333333  1.0
  0.500000000  0.500000000  0.000000000  1.0
  0.500000000  0.500000000  0.166666667  1.0
  0.500000000  0.500000000  0.333333333  1.0
  0.500000000  0.500000000  0.500000000  1.0
  0.500000000  0.500000000  0.666666667  1.0
  0.500000000  0.500000000  0.833333333  1.0
  0.500000000  0.666666667  0.000000000  1.0
  0.500000000  0.666666667  0.166666667  1.0
  0.500000000  0.666666667  0.333333333  1.0
  0.500000000  0.666666667  0.500000000  1.0
  0.500000000  0.666666667  0.666666667  1.0
  0.500000000  0.666666667  0.833333333  1.0
  0.500000000  0.833333333  0.000000000  1.0
  0.500000000  0.833333333  0.166666667  1.0
  0.500000000  0.833333333  0.333333333  1.0
  0.500000000  0.833333333  0.500000000  1.0
  0.500000000  0.833333333  0.666666667  1.0
  0.500000000  0.833333333  0.833333333  1.0
  0.666666667  0.000000000  0.000000000  1.0
  0.666666667  0.000000000  0.166666667  1.0
  0.666666667  0.000000000  0.333333333  1.0
  0.666666667  0.000000000  0.500000000  1.0
  0.666666667  0.000000000  0.666666667  1.0
  0.666666667  0.000000000  0.833333333  1.0
  0.666666667  0.166666667  0.000000000  1.0
  0.666666667  0.166666667  0.166666667  1.0
  0.666666667  0.166666667  0.333333333  1.0
  0.666666667  0.166666667  0.500000000  1.0
  0.666666667  0.166666667  0.666666667  1.0
  0.666666667  0.166666667  0.833333333  1.0
  0.666666667  0.333333333  0.000000000  1.0
  0.666666667  0.333333333  0.166666667  1.0
  0.666666667  0.333333333  0.333333333  1.0
  0.666666667  0.333333333  0.500000000  1.0
  0.666666667  0.333333333  0.666666667  1.0
  0.666666667  0.333333333  0.833333333  1.0
  0.666666667  0.500000000  0.000000000  1.0
  0.666666667  0.500000000  0.166666667  1.0
  0.666666667  0.500000000  0.333333333  1.0
  0.666666667  0.500000000  0.500000000  1.0
  0.666666667  0.500000000  0.666666667  1.0
  0.666666667  0.500000000  0.833333333  1.0
  0.666666667  0.666666667  0.000000000  1.0
  0.666666667  0.666666667  0.166666667  1.0
  0.666666667  0.666666667  0.333333333  1.0
  0.666666667  0.666666667  0.500000000  1.0
  0.666666667  0.666666667  0.666666667  1.0
  0.666666667  0.666666667  0.833333333  1.0
  0.666666667  0.833333333  0.000000000  1.0
  0.666666667  0.833333333  0.166666667  1.0
  0.666666667  0.833333333  0.333333333  1.0
  0.666666667  0.833333333  0.500000000  1.0
  0.666666667  0.833333333  0.666666667  1.0
  0.666666667  0.833333333  0.833333333  1.0
  0.833333333  0.000000000  0.000000000  1.0
  0.833333333  0.000000000  0.166666667  1.0
  0.833333333  0.000000000  0.333333333  1.0
  0.833333333  0.000000000  0.500000000  1.0
  0.833333333  0.000000000  0.666666667  1.0
  0.833333333  0.000000000  0.833333333  1.0
  0.833333333  0.166666667  0.000000000  1.0
  0.833333333  0.166666667  0.166666667  1.0
  0.833333333  0.166666667  0.333333333  1.0
  0.833333333  0.166666667  0.500000000  1.0
  0.833333333  0.166666667  0.666666667  1.0
  0.833333333  0.166666667  0.833333333  1.0
  0.833333333  0.333333333  0.000000000  1.0
  0.833333333  0.333333333  0.166666667  1.0
  0.833333333  0.333333333  0.333333333  1.0
  0.833333333  0.333333333  0.500000000  1.0
  0.833333333  0.333333333  0.666666667  1.0
  0.833333333  0.333333333  0.833333333  1.0
  0.833333333  0.500000000  0.000000000  1.0
  0.833333333  0.500000000  0.166666667  1.0
  0.833333333  0.500000000  0.333333333  1.0
  0.833333333  0.500000000  0.500000000  1.0
  0.833333333  0.500000000  0.666666667  1.0
  0.833333333  0.500000000  0.833333333  1.0
  0.833333333  0.666666667  0.000000000  1.0
  0.833333333  0.666666667  0.166666667  1.0
  0.833333333  0.666666667  0.333333333  1.0
  0.833333333  0.666666667  0.500000000  1.0
  0.833333333  0.666666667  0.666666667  1.0
  0.833333333  0.666666667  0.833333333  1.0
  0.833333333  0.833333333  0.000000000  1.0
  0.833333333  0.833333333  0.166666667  1.0
  0.833333333  0.833333333  0.333333333  1.0
  0.833333333  0.833333333  0.500000000  1.0
  0.833333333  0.833333333  0.666666667  1.0
  0.833333333  0.833333333  0.833333333  1.0