&CONTROL
   calculation      = 'scf'
   verbosity        = 'high'
   prefix           = 'Ne-102'
   disk_io          = 'nowf'
   pseudo_dir       = './'
/
&SYSTEM
   ecutwfc          = 100
   occupations      = 'smearing'
   degauss          = 0.0007349862
   smearing         = 'gaussian'
   nspin            = 1
   ntyp             = 1
   nat              = 4
   ibrav            = 0
/
&ELECTRONS
   conv_thr         = 1e-10
/
&IONS
/
&CELL
/

ATOMIC_SPECIES
Ne 20.1797 Ne_ONCV_PBE-1.2.upf

K_POINTS automatic
22 22 22  1 1 1

CELL_PARAMETERS angstrom
4.65323426966677 0.00000000000000 0.00000000000000
0.00000000000000 4.65323426966677 0.00000000000000
0.00000000000000 0.00000000000000 4.65323426966677

ATOMIC_POSITIONS angstrom
Ne 1.1633085674 1.1633085674 1.1633085674 
Ne 1.1633085674 3.4899257023 3.4899257023 
Ne 3.4899257023 1.1633085674 3.4899257023 
Ne 3.4899257023 3.4899257023 1.1633085674 

