&CONTROL
   calculation      = 'scf'
   verbosity        = 'high'
   prefix           = 'Ne-104'
   disk_io          = 'nowf'
   pseudo_dir       = './'
/
&SYSTEM
   ecutwfc          = 100
   occupations      = 'smearing'
   degauss          = 0.0007349862
   smearing         = 'gaussian'
   nspin            = 1
   ntyp             = 1
   nat              = 4
   ibrav            = 0
/
&ELECTRONS
   conv_thr         = 1e-10
/
&IONS
/
&CELL
/

ATOMIC_SPECIES
Ne 20.1797 Ne_ONCV_PBE-1.2.upf

K_POINTS automatic
22 22 22  1 1 1

CELL_PARAMETERS angstrom
4.68345092328723 0.00000000000000 0.00000000000000
0.00000000000000 4.68345092328723 0.00000000000000
0.00000000000000 0.00000000000000 4.68345092328723

ATOMIC_POSITIONS angstrom
Ne 1.1708627308 1.1708627308 1.1708627308 
Ne 1.1708627308 3.5125881925 3.5125881925 
Ne 3.5125881925 1.1708627308 3.5125881925 
Ne 3.5125881925 3.5125881925 1.1708627308 

