&CONTROL
   calculation      = 'scf'
   verbosity        = 'high'
   prefix           = 'Fe-106'
   disk_io          = 'nowf'
   pseudo_dir       = './'
/
&SYSTEM
   ecutwfc          = 100
   occupations      = 'smearing'
   degauss          = 0.0007349862
   smearing         = 'gaussian'
   nspin            = 2
   starting_magnetization(1) = 0.0625
   ntyp             = 1
   nat              = 2
   ibrav            = 0
/
&ELECTRONS
   conv_thr         = 1e-10
/
&IONS
/
&CELL
/

ATOMIC_SPECIES
Fe  55.845 Fe_ONCV_PBE-1.2.upf

K_POINTS automatic
36 36 36  1 1 1

CELL_PARAMETERS angstrom
2.88908312846157 0.00000000000000 0.00000000000000
0.00000000000000 2.88908312846157 0.00000000000000
0.00000000000000 0.00000000000000 2.88908312846157

ATOMIC_POSITIONS angstrom
Fe  0.7222707821 0.7222707821 0.7222707821
Fe  2.1668123463 2.1668123463 2.1668123463

