&CONTROL
   calculation      = 'scf'
   verbosity        = 'high'
   prefix           = 'Ga-102'
   disk_io          = 'nowf'
   pseudo_dir       = './'
/
&SYSTEM
   ecutwfc          = 100
   occupations      = 'smearing'
   degauss          = 0.0007349862
   smearing         = 'gaussian'
   nspin            = 1
   ntyp             = 1
   nat              = 8
   ibrav            = 0
/
&ELECTRONS
   conv_thr         = 1e-10
/
&IONS
/
&CELL
/

ATOMIC_SPECIES
Ga 69.723 Ga_ONCV_PBE-1.2.upf

K_POINTS automatic
22 12 22  1 1 1

CELL_PARAMETERS angstrom
4.59713518606298 0.00000000000000 0.00000000000000
0.00000000000000 7.80464785403242 0.00000000000000
0.00000000000000 0.00000000000000 4.63024300698042

ATOMIC_POSITIONS angstrom
Ga 1.1492837965 1.2208030173 0.3759757322 
Ga 1.1492837965 6.5838448367 4.2542672748 
Ga 1.1492837965 2.6815209097 2.6910972357 
Ga 1.1492837965 5.1231269443 1.9391457713 
Ga 3.4478513895 5.1231269443 0.3759757322 
Ga 3.4478513895 2.6815209097 4.2542672748 
Ga 3.4478513895 6.5838448367 2.6910972357 
Ga 3.4478513895 1.2208030173 1.9391457713 

