&CONTROL
   calculation      = 'scf'
   verbosity        = 'high'
   prefix           = 'Ga-94'
   disk_io          = 'nowf'
   pseudo_dir       = './'
/
&SYSTEM
   ecutwfc          = 100
   occupations      = 'smearing'
   degauss          = 0.0007349862
   smearing         = 'gaussian'
   nspin            = 1
   ntyp             = 1
   nat              = 8
   ibrav            = 0
/
&ELECTRONS
   conv_thr         = 1e-10
/
&IONS
/
&CELL
/

ATOMIC_SPECIES
Ga 69.723 Ga_ONCV_PBE-1.2.upf

K_POINTS automatic
22 12 22  1 1 1

CELL_PARAMETERS angstrom
4.47366200403201 0.00000000000000 0.00000000000000
0.00000000000000 7.59502497670436 0.00000000000000
0.00000000000000 0.00000000000000 4.50588059114767

ATOMIC_POSITIONS angstrom
Ga 1.1184155010 1.1880138069 0.3658775040 
Ga 1.1184155010 6.4070111698 4.1400030871 
Ga 1.1184155010 2.6094986815 2.6188177996 
Ga 1.1184155010 4.9855262952 1.8870627916 
Ga 3.3552465030 4.9855262952 0.3658775040 
Ga 3.3552465030 2.6094986815 4.1400030871 
Ga 3.3552465030 6.4070111698 2.6188177996 
Ga 3.3552465030 1.1880138069 1.8870627916 

