&CONTROL
   calculation      = 'scf'
   verbosity        = 'high'
   prefix           = 'Al-104'
   disk_io          = 'nowf'
   pseudo_dir       = './'
/
&SYSTEM
   ecutwfc          = 100
   occupations      = 'smearing'
   degauss          = 0.0007349862
   smearing         = 'gaussian'
   nspin            = 1
   ntyp             = 1
   nat              = 4
   ibrav            = 0
/
&ELECTRONS
   conv_thr         = 1e-10
/
&IONS
/
&CELL
/

ATOMIC_SPECIES
Al 26.9815385 Al_ONCV_PBE-1.2.upf

K_POINTS automatic
24 24 24  1 1 1

CELL_PARAMETERS angstrom
4.09337675490832 0.00000000000000 0.00000000000000
0.00000000000000 4.09337675490832 0.00000000000000
0.00000000000000 0.00000000000000 4.09337675490832

ATOMIC_POSITIONS angstrom
Al 1.0233441887 1.0233441887 1.0233441887 
Al 1.0233441887 3.0700325662 3.0700325662 
Al 3.0700325662 1.0233441887 3.0700325662 
Al 3.0700325662 3.0700325662 1.0233441887 

