&CONTROL
   calculation      = 'scf'
   verbosity        = 'high'
   prefix           = 'Al-100'
   disk_io          = 'nowf'
   pseudo_dir       = './'
/
&SYSTEM
   ecutwfc          = 100
   occupations      = 'smearing'
   degauss          = 0.0007349862
   smearing         = 'gaussian'
   nspin            = 1
   ntyp             = 1
   nat              = 4
   ibrav            = 0
/
&ELECTRONS
   conv_thr         = 1e-10
/
&IONS
/
&CELL
/

ATOMIC_SPECIES
Al 26.9815385 Al_ONCV_PBE-1.2.upf

K_POINTS automatic
24 24 24  1 1 1

CELL_PARAMETERS angstrom
4.04021000000000 0.00000000000000 0.00000000000000
0.00000000000000 4.04021000000000 0.00000000000000
0.00000000000000 0.00000000000000 4.04021000000000

ATOMIC_POSITIONS angstrom
Al 1.0100525000 1.0100525000 1.0100525000 
Al 1.0100525000 3.0301575000 3.0301575000 
Al 3.0301575000 1.0100525000 3.0301575000 
Al 3.0301575000 3.0301575000 1.0100525000 

