&CONTROL
   calculation      = 'scf'
   verbosity        = 'high'
   prefix           = 'Al-96'
   disk_io          = 'nowf'
   pseudo_dir       = './'
/
&SYSTEM
   ecutwfc          = 100
   occupations      = 'smearing'
   degauss          = 0.0007349862
   smearing         = 'gaussian'
   nspin            = 1
   ntyp             = 1
   nat              = 4
   ibrav            = 0
/
&ELECTRONS
   conv_thr         = 1e-10
/
&IONS
/
&CELL
/

ATOMIC_SPECIES
Al 26.9815385 Al_ONCV_PBE-1.2.upf

K_POINTS automatic
24 24 24  1 1 1

CELL_PARAMETERS angstrom
3.98560587393228 0.00000000000000 0.00000000000000
0.00000000000000 3.98560587393228 0.00000000000000
0.00000000000000 0.00000000000000 3.98560587393228

ATOMIC_POSITIONS angstrom
Al 0.9964014685 0.9964014685 0.9964014685 
Al 0.9964014685 2.9892044054 2.9892044054 
Al 2.9892044054 0.9964014685 2.9892044054 
Al 2.9892044054 2.9892044054 0.9964014685 

