&CONTROL
   calculation      = 'scf'
   verbosity        = 'high'
   prefix           = 'Al-94'
   disk_io          = 'nowf'
   pseudo_dir       = './'
/
&SYSTEM
   ecutwfc          = 100
   occupations      = 'smearing'
   degauss          = 0.0007349862
   smearing         = 'gaussian'
   nspin            = 1
   ntyp             = 1
   nat              = 4
   ibrav            = 0
/
&ELECTRONS
   conv_thr         = 1e-10
/
&IONS
/
&CELL
/

ATOMIC_SPECIES
Al 26.9815385 Al_ONCV_PBE-1.2.upf

K_POINTS automatic
24 24 24  1 1 1

CELL_PARAMETERS angstrom
3.95773359229370 0.00000000000000 0.00000000000000
0.00000000000000 3.95773359229370 0.00000000000000
0.00000000000000 0.00000000000000 3.95773359229370

ATOMIC_POSITIONS angstrom
Al 0.9894333981 0.9894333981 0.9894333981 
Al 0.9894333981 2.9683001942 2.9683001942 
Al 2.9683001942 0.9894333981 2.9683001942 
Al 2.9683001942 2.9683001942 0.9894333981 

