&CONTROL
   calculation      = 'scf'
   verbosity        = 'high'
   prefix           = 'Al-98'
   disk_io          = 'nowf'
   pseudo_dir       = './'
/
&SYSTEM
   ecutwfc          = 100
   occupations      = 'smearing'
   degauss          = 0.0007349862
   smearing         = 'gaussian'
   nspin            = 1
   ntyp             = 1
   nat              = 4
   ibrav            = 0
/
&ELECTRONS
   conv_thr         = 1e-10
/
&IONS
/
&CELL
/

ATOMIC_SPECIES
Al 26.9815385 Al_ONCV_PBE-1.2.upf

K_POINTS automatic
24 24 24  1 1 1

CELL_PARAMETERS angstrom
4.01309367961380 0.00000000000000 0.00000000000000
0.00000000000000 4.01309367961380 0.00000000000000
0.00000000000000 0.00000000000000 4.01309367961380

ATOMIC_POSITIONS angstrom
Al 1.0032734199 1.0032734199 1.0032734199 
Al 1.0032734199 3.0098202597 3.0098202597 
Al 3.0098202597 1.0032734199 3.0098202597 
Al 3.0098202597 3.0098202597 1.0032734199 

