&control
    prefix='silicon',
    calculation = 'scf'
    pseudo_dir='/home/agrim/Downloads/qe-6.8/pseudo/',
    outdir='/home/agrim/Documents/DFT-GW/GWA_kpts/epsilon/QE_data/control_scripts/results/si_4/tempdir/',
    verbosity='high'
 /
&system
    ibrav=  2, celldm(1) =10.200, nat=  2, ntyp= 1,
    ecutwfc = 25.0, nbnd = 30
    nosym=.true.,
    nosym_evc=.true.,
    noinv=.true.,
    no_t_rev=.true.
/
&electrons
 conv_thr = 1D-10,
 startingwfc="random"
/
ATOMIC_SPECIES
  Si  28.086  Si.bhs
ATOMIC_POSITIONS crystal
Si -0.125 -0.125 -0.125 
Si 0.125 0.125 0.125

K_POINTS crystal
    64
  0.000000000  0.000000000  0.000000000  1.0
  0.000000000  0.000000000  0.250000000  1.0
  0.000000000  0.000000000  0.500000000  1.0
  0.000000000  0.000000000  0.750000000  1.0
  0.000000000  0.250000000  0.000000000  1.0
  0.000000000  0.250000000  0.250000000  1.0
  0.000000000  0.250000000  0.500000000  1.0
  0.000000000  0.250000000  0.750000000  1.0
  0.000000000  0.500000000  0.000000000  1.0
  0.000000000  0.500000000  0.250000000  1.0
  0.000000000  0.500000000  0.500000000  1.0
  0.000000000  0.500000000  0.750000000  1.0
  0.000000000  0.750000000  0.000000000  1.0
  0.000000000  0.750000000  0.250000000  1.0
  0.000000000  0.750000000  0.500000000  1.0
  0.000000000  0.750000000  0.750000000  1.0
  0.250000000  0.000000000  0.000000000  1.0
  0.250000000  0.000000000  0.250000000  1.0
  0.250000000  0.000000000  0.500000000  1.0
  0.250000000  0.000000000  0.750000000  1.0
  0.250000000  0.250000000  0.000000000  1.0
  0.250000000  0.250000000  0.250000000  1.0
  0.250000000  0.250000000  0.500000000  1.0
  0.250000000  0.250000000  0.750000000  1.0
  0.250000000  0.500000000  0.000000000  1.0
  0.250000000  0.500000000  0.250000000  1.0
  0.250000000  0.500000000  0.500000000  1.0
  0.250000000  0.500000000  0.750000000  1.0
  0.250000000  0.750000000  0.000000000  1.0
  0.250000000  0.750000000  0.250000000  1.0
  0.250000000  0.750000000  0.500000000  1.0
  0.250000000  0.750000000  0.750000000  1.0
  0.500000000  0.000000000  0.000000000  1.0
  0.500000000  0.000000000  0.250000000  1.0
  0.500000000  0.000000000  0.500000000  1.0
  0.500000000  0.000000000  0.750000000  1.0
  0.500000000  0.250000000  0.000000000  1.0
  0.500000000  0.250000000  0.250000000  1.0
  0.500000000  0.250000000  0.500000000  1.0
  0.500000000  0.250000000  0.750000000  1.0
  0.500000000  0.500000000  0.000000000  1.0
  0.500000000  0.500000000  0.250000000  1.0
  0.500000000  0.500000000  0.500000000  1.0
  0.500000000  0.500000000  0.750000000  1.0
  0.500000000  0.750000000  0.000000000  1.0
  0.500000000  0.750000000  0.250000000  1.0
  0.500000000  0.750000000  0.500000000  1.0
  0.500000000  0.750000000  0.750000000  1.0
  0.750000000  0.000000000  0.000000000  1.0
  0.750000000  0.000000000  0.250000000  1.0
  0.750000000  0.000000000  0.500000000  1.0
  0.750000000  0.000000000  0.750000000  1.0
  0.750000000  0.250000000  0.000000000  1.0
  0.750000000  0.250000000  0.250000000  1.0
  0.750000000  0.250000000  0.500000000  1.0
  0.750000000  0.250000000  0.750000000  1.0
  0.750000000  0.500000000  0.000000000  1.0
  0.750000000  0.500000000  0.250000000  1.0
  0.750000000  0.500000000  0.500000000  1.0
  0.750000000  0.500000000  0.750000000  1.0
  0.750000000  0.750000000  0.000000000  1.0
  0.750000000  0.750000000  0.250000000  1.0
  0.750000000  0.750000000  0.500000000  1.0
  0.750000000  0.750000000  0.750000000  1.0
