&CONTROL
   calculation      = 'scf'
   verbosity        = 'high'
   prefix           = 'iron'
   pseudo_dir       = './'
   outdir           = './'
   disk_io          = 'high'
/
&SYSTEM
   ibrav            = 3
   celldm(1)        = 5.107
   nspin            = 2
   ntyp             = 1
   nat              = 1
   ecutwfc          = 40
   nbnd             = 12
   starting_magnetization(1)=0.1
   occupations      = 'smearing'
   smearing         = 'gaussian'
   degauss          = 0.01
!  input_dft        = 'XC-000I-000I-101L-130L-000I-000I'
/
&ELECTRONS
   conv_thr         = 1D-10
/

ATOMIC_SPECIES
Fe   55.847   Fe_ONCV_PBE-1.2.upf

ATOMIC_POSITIONS crystal
Fe   0.000   0.000   0.000

K_POINTS automatic
8 8 8 1 1 1
