&INPUTPP
	prefix = 'iron'
        outdir = './'
	filplot = 'rhodat'
        plot_num = 0
        spin_component = 0
/
&PLOT
	nfile = 1
	filepp(1) = 'rhodat'
	iflag = 3
	output_format = 6
	fileout = 'rho'
/
