&CONTROL
   calculation      = 'scf'
   verbosity        = 'high'
   prefix           = 'Rh-104'
   disk_io          = 'nowf'
   pseudo_dir       = './'
/
&SYSTEM
   ecutwfc          = 100
   occupations      = 'smearing'
   degauss          = 0.0007349862
   smearing         = 'gaussian'
   nspin            = 1
   ntyp             = 1
   nat              = 4
   ibrav            = 0
/
&ELECTRONS
   conv_thr         = 1e-10
/
&IONS
/
&CELL
/

ATOMIC_SPECIES
Rh 102.9055 Rh_ONCV_PBE-1.2.upf

K_POINTS automatic
26 26 26  1 1 1

CELL_PARAMETERS angstrom
3.89265974541750 0.00000000000000 0.00000000000000
0.00000000000000 3.89265974541750 0.00000000000000
0.00000000000000 0.00000000000000 3.89265974541750

ATOMIC_POSITIONS angstrom
Rh 0.9731649364 0.9731649364 0.9731649364 
Rh 0.9731649364 2.9194948091 2.9194948091 
Rh 2.9194948091 0.9731649364 2.9194948091 
Rh 2.9194948091 2.9194948091 0.9731649364 

