&CONTROL
   calculation      = 'scf'
   verbosity        = 'high'
   prefix           = 'Sb-106'
   disk_io          = 'nowf'
   pseudo_dir       = './'
/
&SYSTEM
   ecutwfc          = 100
   occupations      = 'smearing'
   degauss          = 0.0007349862
   smearing         = 'gaussian'
   nspin            = 1
   ntyp             = 1
   nat              = 6
   ibrav            = 0
/
&ELECTRONS
   conv_thr         = 1e-10
/
&IONS
/
&CELL
/

ATOMIC_SPECIES
Sb 121.76 Sb_ONCV_PBE-1.2.upf

K_POINTS automatic
26 26 8  1 1 1

CELL_PARAMETERS angstrom
4.46638338023585 0.00000000000000 0.00000000000000
-2.23319169011792 3.86800147032485 0.00000000000000
0.00000000000000 0.00000000000000 11.70315676027510

ATOMIC_POSITIONS angstrom
Sb 0.3721948930 0.6446604651 2.7305805353 
Sb 0.3721948930 0.6446604651 8.9725762250 
Sb 2.6054089151 1.9339813952 6.6317108098 
Sb 2.6054089151 1.9339813952 1.1704327076 
Sb 0.3721725611 3.2233410053 10.5327240527 
Sb 0.3721725611 3.2233410053 5.0714459505 

