&CONTROL
   calculation      = 'scf'
   verbosity        = 'high'
   prefix           = 'Sb-94'
   disk_io          = 'nowf'
   pseudo_dir       = './'
/
&SYSTEM
   ecutwfc          = 100
   occupations      = 'smearing'
   degauss          = 0.0007349862
   smearing         = 'gaussian'
   nspin            = 1
   ntyp             = 1
   nat              = 6
   ibrav            = 0
/
&ELECTRONS
   conv_thr         = 1e-10
/
&IONS
/
&CELL
/

ATOMIC_SPECIES
Sb 121.76 Sb_ONCV_PBE-1.2.upf

K_POINTS automatic
26 26 8  1 1 1

CELL_PARAMETERS angstrom
4.29104756164526 0.00000000000000 0.00000000000000
-2.14552378082263 3.71615619723206 0.00000000000000
0.00000000000000 0.00000000000000 11.24372853928156

ATOMIC_POSITIONS angstrom
Sb 0.3575837209 0.6193531726 2.6233867428 
Sb 0.3575837209 0.6193531726 8.6203417965 
Sb 2.5031289570 1.8580595178 6.3713712141 
Sb 2.5031289570 1.8580595178 1.1244852912 
Sb 0.3575622657 3.0968030246 10.1192432481 
Sb 0.3575622657 3.0968030246 4.8723573252 

