&CONTROL
   calculation      = 'scf'
   verbosity        = 'high'
   prefix           = 'As-96'
   disk_io          = 'nowf'
   pseudo_dir       = './'
/
&SYSTEM
   ecutwfc          = 100
   occupations      = 'smearing'
   degauss          = 0.0007349862
   smearing         = 'gaussian'
   nspin            = 1
   ntyp             = 1
   nat              = 6
   ibrav            = 0
/
&ELECTRONS
   conv_thr         = 1e-10
/
&IONS
/
&CELL
/

ATOMIC_SPECIES
As 74.921595 As_ONCV_PBE-1.2.upf

K_POINTS automatic
30 30 10  1 1 1

CELL_PARAMETERS angstrom
3.76891461623331 0.00000000000000 0.00000000000000
-1.88445730811665 3.26397580235253 0.00000000000000
0.00000000000000 0.00000000000000 10.64380631342331

ATOMIC_POSITIONS angstrom
As 0.3140730773 0.5439905271 2.4115671964 
As 0.3140730773 0.5439905271 8.2322391170 
As 2.1985492299 1.6319715813 5.9594671549 
As 2.1985492299 1.6319715813 1.1363327620 
As 0.3140542327 2.7199852753 9.5074735514 
As 0.3140542327 2.7199852753 4.6843391585 

