&CONTROL
   calculation      = 'scf'
   verbosity        = 'high'
   prefix           = 'Ge-104'
   disk_io          = 'nowf'
   pseudo_dir       = './'
/
&SYSTEM
   ecutwfc          = 100
   occupations      = 'smearing'
   degauss          = 0.0007349862
   smearing         = 'gaussian'
   nspin            = 1
   ntyp             = 1
   nat              = 2
   ibrav            = 0
/
&ELECTRONS
   conv_thr         = 1e-10
/
&IONS
/
&CELL
/

ATOMIC_SPECIES
Ge 72.63 Ge_ONCV_PBE-1.2.upf

K_POINTS automatic
30 30 30  1 1 1

CELL_PARAMETERS angstrom
4.12780391145013 0.00000000000000 0.00000000000000
2.06390195572506 3.57478304915658 0.00000000000000
2.06390195572506 1.19159434971886 3.37033778043912

ATOMIC_POSITIONS angstrom
Ge 3.0958529336 1.7873915246 1.2638766677 
Ge 5.1597548893 2.9789858743 2.1064611128 

