&CONTROL
   calculation      = 'scf'
   verbosity        = 'high'
   prefix           = 'Ge-96'
   disk_io          = 'nowf'
   pseudo_dir       = './'
/
&SYSTEM
   ecutwfc          = 100
   occupations      = 'smearing'
   degauss          = 0.0007349862
   smearing         = 'gaussian'
   nspin            = 1
   ntyp             = 1
   nat              = 2
   ibrav            = 0
/
&ELECTRONS
   conv_thr         = 1e-10
/
&IONS
/
&CELL
/

ATOMIC_SPECIES
Ge 72.63 Ge_ONCV_PBE-1.2.upf

K_POINTS automatic
30 30 30  1 1 1

CELL_PARAMETERS angstrom
4.01912662844658 0.00000000000000 0.00000000000000
2.00956331422329 3.48066576126124 0.00000000000000
2.00956331422329 1.16022192042041 3.28160315044221

ATOMIC_POSITIONS angstrom
Ge 3.0143449713 1.7403328806 1.2306011814 
Ge 5.0239082856 2.9005548011 2.0510019690 

