&CONTROL
   calculation      = 'scf'
   verbosity        = 'high'
   prefix           = 'Ar-102'
   disk_io          = 'nowf'
   pseudo_dir       = './'
/
&SYSTEM
   ecutwfc          = 100
   occupations      = 'smearing'
   degauss          = 0.0007349862
   smearing         = 'gaussian'
   nspin            = 1
   ntyp             = 1
   nat              = 4
   ibrav            = 0
/
&ELECTRONS
   conv_thr         = 1e-10
/
&IONS
/
&CELL
/

ATOMIC_SPECIES
Ar 39.948 Ar_ONCV_PBE-1.2.upf

K_POINTS automatic
16 16 16  1 1 1

CELL_PARAMETERS angstrom
5.98999902928131 0.00000000000000 0.00000000000000
0.00000000000000 5.98999902928131 0.00000000000000
0.00000000000000 0.00000000000000 5.98999902928131

ATOMIC_POSITIONS angstrom
Ar 1.4974997573 1.4974997573 1.4974997573 
Ar 1.4974997573 4.4924992720 4.4924992720 
Ar 4.4924992720 1.4974997573 4.4924992720 
Ar 4.4924992720 4.4924992720 1.4974997573 

