&CONTROL
   calculation      = 'scf'
   verbosity        = 'high'
   prefix           = 'Nb-100'
   disk_io          = 'nowf'
   pseudo_dir       = './'
/
&SYSTEM
   ecutwfc          = 100
   occupations      = 'smearing'
   degauss          = 0.0007349862
   smearing         = 'gaussian'
   nspin            = 1
   ntyp             = 1
   nat              = 2
   ibrav            = 0
/
&ELECTRONS
   conv_thr         = 1e-10
/
&IONS
/
&CELL
/

ATOMIC_SPECIES
Nb 92.90637 Nb_ONCV_PBE-1.2.upf

K_POINTS automatic
30 30 30  1 1 1

CELL_PARAMETERS angstrom
3.32239000000000 0.00000000000000 0.00000000000000
0.00000000000000 3.32239000000000 0.00000000000000
0.00000000000000 0.00000000000000 3.32239000000000

ATOMIC_POSITIONS angstrom
Nb 0.8305975000 0.8305975000 0.8305975000 
Nb 2.4917925000 2.4917925000 2.4917925000 

