&CONTROL
   calculation      = 'scf'
   verbosity        = 'high'
   prefix           = 'Hf-102'
   disk_io          = 'nowf'
   pseudo_dir       = './'
/
&SYSTEM
   ecutwfc          = 100
   occupations      = 'smearing'
   degauss          = 0.0007349862
   smearing         = 'gaussian'
   nspin            = 1
   ntyp             = 1
   nat              = 2
   ibrav            = 0
/
&ELECTRONS
   conv_thr         = 1e-10
/
&IONS
/
&CELL
/

ATOMIC_SPECIES
Hf 178.49 Hf_ONCV_PBE-1.2.upf

K_POINTS automatic
36 36 20  1 1 1

CELL_PARAMETERS angstrom
3.22394075058946 0.00000000000000 0.00000000000000
1.61197037529473 2.79201459030634 0.00000000000000
0.00000000000000 0.00000000000000 5.09847356033230

ATOMIC_POSITIONS angstrom
Hf 1.6119784351 0.9306761835 1.2746183901 
Hf 3.2239326907 1.8613384068 3.8238551702 

