&CONTROL
   calculation      = 'scf'
   verbosity        = 'high'
   prefix           = 'Hf-106'
   disk_io          = 'nowf'
   pseudo_dir       = './'
/
&SYSTEM
   ecutwfc          = 100
   occupations      = 'smearing'
   degauss          = 0.0007349862
   smearing         = 'gaussian'
   nspin            = 1
   ntyp             = 1
   nat              = 2
   ibrav            = 0
/
&ELECTRONS
   conv_thr         = 1e-10
/
&IONS
/
&CELL
/

ATOMIC_SPECIES
Hf 178.49 Hf_ONCV_PBE-1.2.upf

K_POINTS automatic
36 36 20  1 1 1

CELL_PARAMETERS angstrom
3.26554457475630 0.00000000000000 0.00000000000000
1.63277228737815 2.82804455892941 0.00000000000000
0.00000000000000 0.00000000000000 5.16426757267096

ATOMIC_POSITIONS angstrom
Hf 1.6327804512 0.9426862331 1.2910668932 
Hf 3.2655364109 1.8853583259 3.8732006795 

