&CONTROL
   calculation      = 'scf'
   verbosity        = 'high'
   prefix           = 'Hf-104'
   disk_io          = 'nowf'
   pseudo_dir       = './'
/
&SYSTEM
   ecutwfc          = 100
   occupations      = 'smearing'
   degauss          = 0.0007349862
   smearing         = 'gaussian'
   nspin            = 1
   ntyp             = 1
   nat              = 2
   ibrav            = 0
/
&ELECTRONS
   conv_thr         = 1e-10
/
&IONS
/
&CELL
/

ATOMIC_SPECIES
Hf 178.49 Hf_ONCV_PBE-1.2.upf

K_POINTS automatic
36 36 20  1 1 1

CELL_PARAMETERS angstrom
3.24487601739700 0.00000000000000 0.00000000000000
1.62243800869850 2.81014506319667 0.00000000000000
0.00000000000000 0.00000000000000 5.13158145919093

ATOMIC_POSITIONS angstrom
Hf 1.6224461209 0.9367197046 1.2828953648 
Hf 3.2448679052 1.8734253586 3.8486860944 

