&CONTROL
   calculation      = 'scf'
   verbosity        = 'high'
   prefix           = 'Hf-98'
   disk_io          = 'nowf'
   pseudo_dir       = './'
/
&SYSTEM
   ecutwfc          = 100
   occupations      = 'smearing'
   degauss          = 0.0007349862
   smearing         = 'gaussian'
   nspin            = 1
   ntyp             = 1
   nat              = 2
   ibrav            = 0
/
&ELECTRONS
   conv_thr         = 1e-10
/
&IONS
/
&CELL
/

ATOMIC_SPECIES
Hf 178.49 Hf_ONCV_PBE-1.2.upf

K_POINTS automatic
36 36 20  1 1 1

CELL_PARAMETERS angstrom
3.18123452011393 0.00000000000000 0.00000000000000
1.59061726005697 2.75502990981466 0.00000000000000
0.00000000000000 0.00000000000000 5.03093615695381

ATOMIC_POSITIONS angstrom
Hf 1.5906252131 0.9183478950 1.2577340392 
Hf 3.1812265670 1.8366820148 3.7732021177 

