&CONTROL
   calculation      = 'scf'
   verbosity        = 'high'
   prefix           = 'Hf-94'
   disk_io          = 'nowf'
   pseudo_dir       = './'
/
&SYSTEM
   ecutwfc          = 100
   occupations      = 'smearing'
   degauss          = 0.0007349862
   smearing         = 'gaussian'
   nspin            = 1
   ntyp             = 1
   nat              = 2
   ibrav            = 0
/
&ELECTRONS
   conv_thr         = 1e-10
/
&IONS
/
&CELL
/

ATOMIC_SPECIES
Hf 178.49 Hf_ONCV_PBE-1.2.upf

K_POINTS automatic
36 36 20  1 1 1

CELL_PARAMETERS angstrom
3.13734981796659 0.00000000000000 0.00000000000000
1.56867490898330 2.71702464291755 0.00000000000000
0.00000000000000 0.00000000000000 4.96153506961671

ATOMIC_POSITIONS angstrom
Hf 1.5686827524 0.9056794093 1.2403837674 
Hf 3.1373419746 1.8113452336 3.7211513022 

