&CONTROL
   calculation      = 'scf'
   verbosity        = 'high'
   prefix           = 'Ti-102'
   disk_io          = 'nowf'
   pseudo_dir       = './'
/
&SYSTEM
   ecutwfc          = 100
   occupations      = 'smearing'
   degauss          = 0.0007349862
   smearing         = 'gaussian'
   nspin            = 1
   ntyp             = 1
   nat              = 2
   ibrav            = 0
/
&ELECTRONS
   conv_thr         = 1e-10
/
&IONS
/
&CELL
/

ATOMIC_SPECIES
Ti 47.867 Ti_ONCV_PBE-1.2.upf

K_POINTS automatic
40 40 22  1 1 1

CELL_PARAMETERS angstrom
2.95608851380261 0.00000000000000 0.00000000000000
1.47804425690131 2.56004774878845 0.00000000000000
0.00000000000000 0.00000000000000 4.68273838128398

ATOMIC_POSITIONS angstrom
Ti 1.4780516471 0.8533535163 1.1706845953 
Ti 2.9560811236 1.7066942324 3.5120537860 

