&CONTROL
   calculation      = 'scf'
   verbosity        = 'high'
   prefix           = 'Ti-104'
   disk_io          = 'nowf'
   pseudo_dir       = './'
/
&SYSTEM
   ecutwfc          = 100
   occupations      = 'smearing'
   degauss          = 0.0007349862
   smearing         = 'gaussian'
   nspin            = 1
   ntyp             = 1
   nat              = 2
   ibrav            = 0
/
&ELECTRONS
   conv_thr         = 1e-10
/
&IONS
/
&CELL
/

ATOMIC_SPECIES
Ti 47.867 Ti_ONCV_PBE-1.2.upf

K_POINTS automatic
40 40 22  1 1 1

CELL_PARAMETERS angstrom
2.97528443163449 0.00000000000000 0.00000000000000
1.48764221581724 2.57667190127981 0.00000000000000
0.00000000000000 0.00000000000000 4.71314662541320

ATOMIC_POSITIONS angstrom
Ti 1.4876496540 0.8588949282 1.1782866564 
Ti 2.9752769934 1.7177769731 3.5348599691 

