&CONTROL
   calculation      = 'scf'
   verbosity        = 'high'
   prefix           = 'Ti-106'
   disk_io          = 'nowf'
   pseudo_dir       = './'
/
&SYSTEM
   ecutwfc          = 100
   occupations      = 'smearing'
   degauss          = 0.0007349862
   smearing         = 'gaussian'
   nspin            = 1
   ntyp             = 1
   nat              = 2
   ibrav            = 0
/
&ELECTRONS
   conv_thr         = 1e-10
/
&IONS
/
&CELL
/

ATOMIC_SPECIES
Ti 47.867 Ti_ONCV_PBE-1.2.upf

K_POINTS automatic
40 40 22  1 1 1

CELL_PARAMETERS angstrom
2.99423579883798 0.00000000000000 0.00000000000000
1.49711789941899 2.59308426671448 0.00000000000000
0.00000000000000 0.00000000000000 4.74316747701058

ATOMIC_POSITIONS angstrom
Ti 1.4971253850 0.8643657440 1.1857918693 
Ti 2.9942283132 1.7287185227 3.5573756078 

