&CONTROL
   calculation      = 'scf'
   verbosity        = 'high'
   prefix           = 'Ti-100'
   disk_io          = 'nowf'
   pseudo_dir       = './'
/
&SYSTEM
   ecutwfc          = 100
   occupations      = 'smearing'
   degauss          = 0.0007349862
   smearing         = 'gaussian'
   nspin            = 1
   ntyp             = 1
   nat              = 2
   ibrav            = 0
/
&ELECTRONS
   conv_thr         = 1e-10
/
&IONS
/
&CELL
/

ATOMIC_SPECIES
Ti 47.867 Ti_ONCV_PBE-1.2.upf

K_POINTS automatic
40 40 22  1 1 1

CELL_PARAMETERS angstrom
2.93664000000000 0.00000000000000 0.00000000000000
1.46832000000000 2.54320484176953 0.00000000000000
0.00000000000000 0.00000000000000 4.65193000000000

ATOMIC_POSITIONS angstrom
Ti 1.4683273416 0.8477391859 1.1629825000 
Ti 2.9366326584 1.6954656558 3.4889475000 

