&CONTROL
   calculation      = 'scf'
   verbosity        = 'high'
   prefix           = 'Ti-98'
   disk_io          = 'nowf'
   pseudo_dir       = './'
/
&SYSTEM
   ecutwfc          = 100
   occupations      = 'smearing'
   degauss          = 0.0007349862
   smearing         = 'gaussian'
   nspin            = 1
   ntyp             = 1
   nat              = 2
   ibrav            = 0
/
&ELECTRONS
   conv_thr         = 1e-10
/
&IONS
/
&CELL
/

ATOMIC_SPECIES
Ti 47.867 Ti_ONCV_PBE-1.2.upf

K_POINTS automatic
40 40 22  1 1 1

CELL_PARAMETERS angstrom
2.91693041285010 0.00000000000000 0.00000000000000
1.45846520642505 2.52613583859961 0.00000000000000
0.00000000000000 0.00000000000000 4.62070805255317

ATOMIC_POSITIONS angstrom
Ti 1.4584724988 0.8420494898 1.1551770131 
Ti 2.9169231205 1.6840863488 3.4655310394 

