&CONTROL
   calculation      = 'scf'
   verbosity        = 'high'
   prefix           = 'Ti-94'
   disk_io          = 'nowf'
   pseudo_dir       = './'
/
&SYSTEM
   ecutwfc          = 100
   occupations      = 'smearing'
   degauss          = 0.0007349862
   smearing         = 'gaussian'
   nspin            = 1
   ntyp             = 1
   nat              = 2
   ibrav            = 0
/
&ELECTRONS
   conv_thr         = 1e-10
/
&IONS
/
&CELL
/

ATOMIC_SPECIES
Ti 47.867 Ti_ONCV_PBE-1.2.upf

K_POINTS automatic
40 40 22  1 1 1

CELL_PARAMETERS angstrom
2.87669175029847 0.00000000000000 0.00000000000000
1.43834587514923 2.49128813461559 0.00000000000000
0.00000000000000 0.00000000000000 4.55696600671718

ATOMIC_POSITIONS angstrom
Ti 1.4383530669 0.8304335304 1.1392415017 
Ti 2.8766845586 1.6608546043 3.4177245050 

