&CONTROL
   calculation      = 'scf'
   verbosity        = 'high'
   prefix           = 'Te-100'
   disk_io          = 'nowf'
   pseudo_dir       = './'
/
&SYSTEM
   ecutwfc          = 100
   occupations      = 'smearing'
   degauss          = 0.0007349862
   smearing         = 'gaussian'
   nspin            = 1
   ntyp             = 1
   nat              = 3
   ibrav            = 0
/
&ELECTRONS
   conv_thr         = 1e-10
/
&IONS
/
&CELL
/

ATOMIC_SPECIES
Te 127.6 Te_ONCV_PBE-1.2.upf

K_POINTS automatic
26 26 16  1 1 1

CELL_PARAMETERS angstrom
4.50788000000000 0.00000000000000 0.00000000000000
-2.25394000000000 3.90393859721180 0.00000000000000
0.00000000000000 0.00000000000000 5.96346000000000

ATOMIC_POSITIONS angstrom
Te 1.5194936510 0.5263680411 2.9817001827 
Te -0.3038987302 1.5791041232 4.9695599391 
Te 1.9500412698 3.3775705561 0.9939000609 

