&CONTROL
   calculation      = 'scf'
   verbosity        = 'high'
   prefix           = 'Te-106'
   disk_io          = 'nowf'
   pseudo_dir       = './'
/
&SYSTEM
   ecutwfc          = 100
   occupations      = 'smearing'
   degauss          = 0.0007349862
   smearing         = 'gaussian'
   nspin            = 1
   ntyp             = 1
   nat              = 3
   ibrav            = 0
/
&ELECTRONS
   conv_thr         = 1e-10
/
&IONS
/
&CELL
/

ATOMIC_SPECIES
Te 127.6 Te_ONCV_PBE-1.2.upf

K_POINTS automatic
26 26 16  1 1 1

CELL_PARAMETERS angstrom
4.59629224994066 0.00000000000000 0.00000000000000
-2.29814612497033 3.98050585166615 0.00000000000000
0.00000000000000 0.00000000000000 6.08042028200199

ATOMIC_POSITIONS angstrom
Te 1.5492952101 0.5366916040 3.0401797389 
Te -0.3098590420 1.6100748119 5.0670270357 
Te 1.9882870829 3.4438142477 1.0133932463 

