&CONTROL
   calculation      = 'scf'
   verbosity        = 'high'
   prefix           = 'Te-98'
   disk_io          = 'nowf'
   pseudo_dir       = './'
/
&SYSTEM
   ecutwfc          = 100
   occupations      = 'smearing'
   degauss          = 0.0007349862
   smearing         = 'gaussian'
   nspin            = 1
   ntyp             = 1
   nat              = 3
   ibrav            = 0
/
&ELECTRONS
   conv_thr         = 1e-10
/
&IONS
/
&CELL
/

ATOMIC_SPECIES
Te 127.6 Te_ONCV_PBE-1.2.upf

K_POINTS automatic
26 26 16  1 1 1

CELL_PARAMETERS angstrom
4.47762486020714 0.00000000000000 0.00000000000000
-2.23881243010357 3.87773687755613 0.00000000000000
0.00000000000000 0.00000000000000 5.92343557256423

ATOMIC_POSITIONS angstrom
Te 1.5092953998 0.5228352632 2.9616881691 
Te -0.3018590800 1.5685057896 4.9362061829 
Te 1.9369533502 3.3549016144 0.9872293897 

