&CONTROL
   calculation      = 'scf'
   verbosity        = 'high'
   prefix           = 'Te-94'
   disk_io          = 'nowf'
   pseudo_dir       = './'
/
&SYSTEM
   ecutwfc          = 100
   occupations      = 'smearing'
   degauss          = 0.0007349862
   smearing         = 'gaussian'
   nspin            = 1
   ntyp             = 1
   nat              = 3
   ibrav            = 0
/
&ELECTRONS
   conv_thr         = 1e-10
/
&IONS
/
&CELL
/

ATOMIC_SPECIES
Te 127.6 Te_ONCV_PBE-1.2.upf

K_POINTS automatic
26 26 16  1 1 1

CELL_PARAMETERS angstrom
4.41585662775671 0.00000000000000 0.00000000000000
-2.20792831387835 3.82424401910719 0.00000000000000
0.00000000000000 0.00000000000000 5.84172257588090

ATOMIC_POSITIONS angstrom
Te 1.4884748728 0.5156228211 2.9208320793 
Te -0.2976949746 1.5468684633 4.8681118828 
Te 1.9102333393 3.3086211980 0.9736106931 

