&CONTROL
   calculation      = 'scf'
   verbosity        = 'high'
   prefix           = 'Si-100'
   disk_io          = 'nowf'
   pseudo_dir       = './'
/
&SYSTEM
   ecutwfc          = 25
   occupations      = 'fixed'
   nspin            = 1
   ntyp             = 1
   nat              = 432
   ibrav            = 0
/
&ELECTRONS
   conv_thr         = 1e-8
   diago_thr_init   = 1e-5
/
&IONS
/
&CELL
/

ATOMIC_SPECIES
Si 28.085 Si_ONCV_PBE-1.2.upf

K_POINTS automatic
1 1 1  0 0 0

CELL_PARAMETERS bohr
  -30.5999999999999979    0.0000000000000000   30.5999999999999979
    0.0000000000000000   30.5999999999999979   30.5999999999999979
  -30.5999999999999979   30.5999999999999979    0.0000000000000000

ATOMIC_POSITIONS crystal
 Si   0.1458333333333333  0.1458333333333333  0.1458333333333333
 Si   0.3125000000000000  0.1458333333333333  0.1458333333333333
 Si   0.4791666666666666  0.1458333333333333  0.1458333333333333
 Si   0.6458333333333333  0.1458333333333333  0.1458333333333333
 Si   0.8125000000000000  0.1458333333333333  0.1458333333333333
 Si   0.9791666666666666  0.1458333333333333  0.1458333333333333
 Si   0.1458333333333333  0.3125000000000000  0.1458333333333333
 Si   0.3125000000000000  0.3125000000000000  0.1458333333333333
 Si   0.4791666666666666  0.3125000000000000  0.1458333333333333
 Si   0.6458333333333333  0.3125000000000000  0.1458333333333333
 Si   0.8125000000000000  0.3125000000000000  0.1458333333333333
 Si   0.9791666666666666  0.3125000000000000  0.1458333333333333
 Si   0.1458333333333333  0.4791666666666666  0.1458333333333333
 Si   0.3125000000000000  0.4791666666666666  0.1458333333333333
 Si   0.4791666666666666  0.4791666666666666  0.1458333333333333
 Si   0.6458333333333333  0.4791666666666666  0.1458333333333333
 Si   0.8125000000000000  0.4791666666666666  0.1458333333333333
 Si   0.9791666666666666  0.4791666666666666  0.1458333333333333
 Si   0.1458333333333333  0.6458333333333333  0.1458333333333333
 Si   0.3125000000000000  0.6458333333333333  0.1458333333333333
 Si   0.4791666666666666  0.6458333333333333  0.1458333333333333
 Si   0.6458333333333333  0.6458333333333333  0.1458333333333333
 Si   0.8125000000000000  0.6458333333333333  0.1458333333333333
 Si   0.9791666666666666  0.6458333333333333  0.1458333333333333
 Si   0.1458333333333333  0.8125000000000000  0.1458333333333333
 Si   0.3125000000000000  0.8125000000000000  0.1458333333333333
 Si   0.4791666666666666  0.8125000000000000  0.1458333333333333
 Si   0.6458333333333333  0.8125000000000000  0.1458333333333333
 Si   0.8125000000000000  0.8125000000000000  0.1458333333333333
 Si   0.9791666666666666  0.8125000000000000  0.1458333333333333
 Si   0.1458333333333333  0.9791666666666666  0.1458333333333333
 Si   0.3125000000000000  0.9791666666666666  0.1458333333333333
 Si   0.4791666666666666  0.9791666666666666  0.1458333333333333
 Si   0.6458333333333333  0.9791666666666666  0.1458333333333333
 Si   0.8125000000000000  0.9791666666666666  0.1458333333333333
 Si   0.9791666666666666  0.9791666666666666  0.1458333333333333
 Si   0.1458333333333333  0.1458333333333333  0.3125000000000000
 Si   0.3125000000000000  0.1458333333333333  0.3125000000000000
 Si   0.4791666666666666  0.1458333333333333  0.3125000000000000
 Si   0.6458333333333333  0.1458333333333333  0.3125000000000000
 Si   0.8125000000000000  0.1458333333333333  0.3125000000000000
 Si   0.9791666666666666  0.1458333333333333  0.3125000000000000
 Si   0.1458333333333333  0.3125000000000000  0.3125000000000000
 Si   0.3125000000000000  0.3125000000000000  0.3125000000000000
 Si   0.4791666666666666  0.3125000000000000  0.3125000000000000
 Si   0.6458333333333333  0.3125000000000000  0.3125000000000000
 Si   0.8125000000000000  0.3125000000000000  0.3125000000000000
 Si   0.9791666666666666  0.3125000000000000  0.3125000000000000
 Si   0.1458333333333333  0.4791666666666666  0.3125000000000000
 Si   0.3125000000000000  0.4791666666666666  0.3125000000000000
 Si   0.4791666666666666  0.4791666666666666  0.3125000000000000
 Si   0.6458333333333333  0.4791666666666666  0.3125000000000000
 Si   0.8125000000000000  0.4791666666666666  0.3125000000000000
 Si   0.9791666666666666  0.4791666666666666  0.3125000000000000
 Si   0.1458333333333333  0.6458333333333333  0.3125000000000000
 Si   0.3125000000000000  0.6458333333333333  0.3125000000000000
 Si   0.4791666666666666  0.6458333333333333  0.3125000000000000
 Si   0.6458333333333333  0.6458333333333333  0.3125000000000000
 Si   0.8125000000000000  0.6458333333333333  0.3125000000000000
 Si   0.9791666666666666  0.6458333333333333  0.3125000000000000
 Si   0.1458333333333333  0.8125000000000000  0.3125000000000000
 Si   0.3125000000000000  0.8125000000000000  0.3125000000000000
 Si   0.4791666666666666  0.8125000000000000  0.3125000000000000
 Si   0.6458333333333333  0.8125000000000000  0.3125000000000000
 Si   0.8125000000000000  0.8125000000000000  0.3125000000000000
 Si   0.9791666666666666  0.8125000000000000  0.3125000000000000
 Si   0.1458333333333333  0.9791666666666666  0.3125000000000000
 Si   0.3125000000000000  0.9791666666666666  0.3125000000000000
 Si   0.4791666666666666  0.9791666666666666  0.3125000000000000
 Si   0.6458333333333333  0.9791666666666666  0.3125000000000000
 Si   0.8125000000000000  0.9791666666666666  0.3125000000000000
 Si   0.9791666666666666  0.9791666666666666  0.3125000000000000
 Si   0.1458333333333333  0.1458333333333333  0.4791666666666666
 Si   0.3125000000000000  0.1458333333333333  0.4791666666666666
 Si   0.4791666666666666  0.1458333333333333  0.4791666666666666
 Si   0.6458333333333333  0.1458333333333333  0.4791666666666666
 Si   0.8125000000000000  0.1458333333333333  0.4791666666666666
 Si   0.9791666666666666  0.1458333333333333  0.4791666666666666
 Si   0.1458333333333333  0.3125000000000000  0.4791666666666666
 Si   0.3125000000000000  0.3125000000000000  0.4791666666666666
 Si   0.4791666666666666  0.3125000000000000  0.4791666666666666
 Si   0.6458333333333333  0.3125000000000000  0.4791666666666666
 Si   0.8125000000000000  0.3125000000000000  0.4791666666666666
 Si   0.9791666666666666  0.3125000000000000  0.4791666666666666
 Si   0.1458333333333333  0.4791666666666666  0.4791666666666666
 Si   0.3125000000000000  0.4791666666666666  0.4791666666666666
 Si   0.4791666666666666  0.4791666666666666  0.4791666666666666
 Si   0.6458333333333333  0.4791666666666666  0.4791666666666666
 Si   0.8125000000000000  0.4791666666666666  0.4791666666666666
 Si   0.9791666666666666  0.4791666666666666  0.4791666666666666
 Si   0.1458333333333333  0.6458333333333333  0.4791666666666666
 Si   0.3125000000000000  0.6458333333333333  0.4791666666666666
 Si   0.4791666666666666  0.6458333333333333  0.4791666666666666
 Si   0.6458333333333333  0.6458333333333333  0.4791666666666666
 Si   0.8125000000000000  0.6458333333333333  0.4791666666666666
 Si   0.9791666666666666  0.6458333333333333  0.4791666666666666
 Si   0.1458333333333333  0.8125000000000000  0.4791666666666666
 Si   0.3125000000000000  0.8125000000000000  0.4791666666666666
 Si   0.4791666666666666  0.8125000000000000  0.4791666666666666
 Si   0.6458333333333333  0.8125000000000000  0.4791666666666666
 Si   0.8125000000000000  0.8125000000000000  0.4791666666666666
 Si   0.9791666666666666  0.8125000000000000  0.4791666666666666
 Si   0.1458333333333333  0.9791666666666666  0.4791666666666666
 Si   0.3125000000000000  0.9791666666666666  0.4791666666666666
 Si   0.4791666666666666  0.9791666666666666  0.4791666666666666
 Si   0.6458333333333333  0.9791666666666666  0.4791666666666666
 Si   0.8125000000000000  0.9791666666666666  0.4791666666666666
 Si   0.9791666666666666  0.9791666666666666  0.4791666666666666
 Si   0.1458333333333333  0.1458333333333333  0.6458333333333333
 Si   0.3125000000000000  0.1458333333333333  0.6458333333333333
 Si   0.4791666666666666  0.1458333333333333  0.6458333333333333
 Si   0.6458333333333333  0.1458333333333333  0.6458333333333333
 Si   0.8125000000000000  0.1458333333333333  0.6458333333333333
 Si   0.9791666666666666  0.1458333333333333  0.6458333333333333
 Si   0.1458333333333333  0.3125000000000000  0.6458333333333333
 Si   0.3125000000000000  0.3125000000000000  0.6458333333333333
 Si   0.4791666666666666  0.3125000000000000  0.6458333333333333
 Si   0.6458333333333333  0.3125000000000000  0.6458333333333333
 Si   0.8125000000000000  0.3125000000000000  0.6458333333333333
 Si   0.9791666666666666  0.3125000000000000  0.6458333333333333
 Si   0.1458333333333333  0.4791666666666666  0.6458333333333333
 Si   0.3125000000000000  0.4791666666666666  0.6458333333333333
 Si   0.4791666666666666  0.4791666666666666  0.6458333333333333
 Si   0.6458333333333333  0.4791666666666666  0.6458333333333333
 Si   0.8125000000000000  0.4791666666666666  0.6458333333333333
 Si   0.9791666666666666  0.4791666666666666  0.6458333333333333
 Si   0.1458333333333333  0.6458333333333333  0.6458333333333333
 Si   0.3125000000000000  0.6458333333333333  0.6458333333333333
 Si   0.4791666666666666  0.6458333333333333  0.6458333333333333
 Si   0.6458333333333333  0.6458333333333333  0.6458333333333333
 Si   0.8125000000000000  0.6458333333333333  0.6458333333333333
 Si   0.9791666666666666  0.6458333333333333  0.6458333333333333
 Si   0.1458333333333333  0.8125000000000000  0.6458333333333333
 Si   0.3125000000000000  0.8125000000000000  0.6458333333333333
 Si   0.4791666666666666  0.8125000000000000  0.6458333333333333
 Si   0.6458333333333333  0.8125000000000000  0.6458333333333333
 Si   0.8125000000000000  0.8125000000000000  0.6458333333333333
 Si   0.9791666666666666  0.8125000000000000  0.6458333333333333
 Si   0.1458333333333333  0.9791666666666666  0.6458333333333333
 Si   0.3125000000000000  0.9791666666666666  0.6458333333333333
 Si   0.4791666666666666  0.9791666666666666  0.6458333333333333
 Si   0.6458333333333333  0.9791666666666666  0.6458333333333333
 Si   0.8125000000000000  0.9791666666666666  0.6458333333333333
 Si   0.9791666666666666  0.9791666666666666  0.6458333333333333
 Si   0.1458333333333333  0.1458333333333333  0.8125000000000000
 Si   0.3125000000000000  0.1458333333333333  0.8125000000000000
 Si   0.4791666666666666  0.1458333333333333  0.8125000000000000
 Si   0.6458333333333333  0.1458333333333333  0.8125000000000000
 Si   0.8125000000000000  0.1458333333333333  0.8125000000000000
 Si   0.9791666666666666  0.1458333333333333  0.8125000000000000
 Si   0.1458333333333333  0.3125000000000000  0.8125000000000000
 Si   0.3125000000000000  0.3125000000000000  0.8125000000000000
 Si   0.4791666666666666  0.3125000000000000  0.8125000000000000
 Si   0.6458333333333333  0.3125000000000000  0.8125000000000000
 Si   0.8125000000000000  0.3125000000000000  0.8125000000000000
 Si   0.9791666666666666  0.3125000000000000  0.8125000000000000
 Si   0.1458333333333333  0.4791666666666666  0.8125000000000000
 Si   0.3125000000000000  0.4791666666666666  0.8125000000000000
 Si   0.4791666666666666  0.4791666666666666  0.8125000000000000
 Si   0.6458333333333333  0.4791666666666666  0.8125000000000000
 Si   0.8125000000000000  0.4791666666666666  0.8125000000000000
 Si   0.9791666666666666  0.4791666666666666  0.8125000000000000
 Si   0.1458333333333333  0.6458333333333333  0.8125000000000000
 Si   0.3125000000000000  0.6458333333333333  0.8125000000000000
 Si   0.4791666666666666  0.6458333333333333  0.8125000000000000
 Si   0.6458333333333333  0.6458333333333333  0.8125000000000000
 Si   0.8125000000000000  0.6458333333333333  0.8125000000000000
 Si   0.9791666666666666  0.6458333333333333  0.8125000000000000
 Si   0.1458333333333333  0.8125000000000000  0.8125000000000000
 Si   0.3125000000000000  0.8125000000000000  0.8125000000000000
 Si   0.4791666666666666  0.8125000000000000  0.8125000000000000
 Si   0.6458333333333333  0.8125000000000000  0.8125000000000000
 Si   0.8125000000000000  0.8125000000000000  0.8125000000000000
 Si   0.9791666666666666  0.8125000000000000  0.8125000000000000
 Si   0.1458333333333333  0.9791666666666666  0.8125000000000000
 Si   0.3125000000000000  0.9791666666666666  0.8125000000000000
 Si   0.4791666666666666  0.9791666666666666  0.8125000000000000
 Si   0.6458333333333333  0.9791666666666666  0.8125000000000000
 Si   0.8125000000000000  0.9791666666666666  0.8125000000000000
 Si   0.9791666666666666  0.9791666666666666  0.8125000000000000
 Si   0.1458333333333333  0.1458333333333333  0.9791666666666666
 Si   0.3125000000000000  0.1458333333333333  0.9791666666666666
 Si   0.4791666666666666  0.1458333333333333  0.9791666666666666
 Si   0.6458333333333333  0.1458333333333333  0.9791666666666666
 Si   0.8125000000000000  0.1458333333333333  0.9791666666666666
 Si   0.9791666666666666  0.1458333333333333  0.9791666666666666
 Si   0.1458333333333333  0.3125000000000000  0.9791666666666666
 Si   0.3125000000000000  0.3125000000000000  0.9791666666666666
 Si   0.4791666666666666  0.3125000000000000  0.9791666666666666
 Si   0.6458333333333333  0.3125000000000000  0.9791666666666666
 Si   0.8125000000000000  0.3125000000000000  0.9791666666666666
 Si   0.9791666666666666  0.3125000000000000  0.9791666666666666
 Si   0.1458333333333333  0.4791666666666666  0.9791666666666666
 Si   0.3125000000000000  0.4791666666666666  0.9791666666666666
 Si   0.4791666666666666  0.4791666666666666  0.9791666666666666
 Si   0.6458333333333333  0.4791666666666666  0.9791666666666666
 Si   0.8125000000000000  0.4791666666666666  0.9791666666666666
 Si   0.9791666666666666  0.4791666666666666  0.9791666666666666
 Si   0.1458333333333333  0.6458333333333333  0.9791666666666666
 Si   0.3125000000000000  0.6458333333333333  0.9791666666666666
 Si   0.4791666666666666  0.6458333333333333  0.9791666666666666
 Si   0.6458333333333333  0.6458333333333333  0.9791666666666666
 Si   0.8125000000000000  0.6458333333333333  0.9791666666666666
 Si   0.9791666666666666  0.6458333333333333  0.9791666666666666
 Si   0.1458333333333333  0.8125000000000000  0.9791666666666666
 Si   0.3125000000000000  0.8125000000000000  0.9791666666666666
 Si   0.4791666666666666  0.8125000000000000  0.9791666666666666
 Si   0.6458333333333333  0.8125000000000000  0.9791666666666666
 Si   0.8125000000000000  0.8125000000000000  0.9791666666666666
 Si   0.9791666666666666  0.8125000000000000  0.9791666666666666
 Si   0.1458333333333333  0.9791666666666666  0.9791666666666666
 Si   0.3125000000000000  0.9791666666666666  0.9791666666666666
 Si   0.4791666666666666  0.9791666666666666  0.9791666666666666
 Si   0.6458333333333333  0.9791666666666666  0.9791666666666666
 Si   0.8125000000000000  0.9791666666666666  0.9791666666666666
 Si   0.9791666666666666  0.9791666666666666  0.9791666666666666
 Si   0.0208333333333333  0.0208333333333333  0.0208333333333333
 Si   0.1875000000000000  0.0208333333333333  0.0208333333333333
 Si   0.3541666666666666  0.0208333333333333  0.0208333333333333
 Si   0.5208333333333333  0.0208333333333333  0.0208333333333333
 Si   0.6875000000000000  0.0208333333333333  0.0208333333333333
 Si   0.8541666666666666  0.0208333333333333  0.0208333333333333
 Si   0.0208333333333333  0.1875000000000000  0.0208333333333333
 Si   0.1875000000000000  0.1875000000000000  0.0208333333333333
 Si   0.3541666666666666  0.1875000000000000  0.0208333333333333
 Si   0.5208333333333333  0.1875000000000000  0.0208333333333333
 Si   0.6875000000000000  0.1875000000000000  0.0208333333333333
 Si   0.8541666666666666  0.1875000000000000  0.0208333333333333
 Si   0.0208333333333333  0.3541666666666666  0.0208333333333333
 Si   0.1875000000000000  0.3541666666666666  0.0208333333333333
 Si   0.3541666666666666  0.3541666666666666  0.0208333333333333
 Si   0.5208333333333333  0.3541666666666666  0.0208333333333333
 Si   0.6875000000000000  0.3541666666666666  0.0208333333333333
 Si   0.8541666666666666  0.3541666666666666  0.0208333333333333
 Si   0.0208333333333333  0.5208333333333333  0.0208333333333333
 Si   0.1875000000000000  0.5208333333333333  0.0208333333333333
 Si   0.3541666666666666  0.5208333333333333  0.0208333333333333
 Si   0.5208333333333333  0.5208333333333333  0.0208333333333333
 Si   0.6875000000000000  0.5208333333333333  0.0208333333333333
 Si   0.8541666666666666  0.5208333333333333  0.0208333333333333
 Si   0.0208333333333333  0.6875000000000000  0.0208333333333333
 Si   0.1875000000000000  0.6875000000000000  0.0208333333333333
 Si   0.3541666666666666  0.6875000000000000  0.0208333333333333
 Si   0.5208333333333333  0.6875000000000000  0.0208333333333333
 Si   0.6875000000000000  0.6875000000000000  0.0208333333333333
 Si   0.8541666666666666  0.6875000000000000  0.0208333333333333
 Si   0.0208333333333333  0.8541666666666666  0.0208333333333333
 Si   0.1875000000000000  0.8541666666666666  0.0208333333333333
 Si   0.3541666666666666  0.8541666666666666  0.0208333333333333
 Si   0.5208333333333333  0.8541666666666666  0.0208333333333333
 Si   0.6875000000000000  0.8541666666666666  0.0208333333333333
 Si   0.8541666666666666  0.8541666666666666  0.0208333333333333
 Si   0.0208333333333333  0.0208333333333333  0.1875000000000000
 Si   0.1875000000000000  0.0208333333333333  0.1875000000000000
 Si   0.3541666666666666  0.0208333333333333  0.1875000000000000
 Si   0.5208333333333333  0.0208333333333333  0.1875000000000000
 Si   0.6875000000000000  0.0208333333333333  0.1875000000000000
 Si   0.8541666666666666  0.0208333333333333  0.1875000000000000
 Si   0.0208333333333333  0.1875000000000000  0.1875000000000000
 Si   0.1875000000000000  0.1875000000000000  0.1875000000000000
 Si   0.3541666666666666  0.1875000000000000  0.1875000000000000
 Si   0.5208333333333333  0.1875000000000000  0.1875000000000000
 Si   0.6875000000000000  0.1875000000000000  0.1875000000000000
 Si   0.8541666666666666  0.1875000000000000  0.1875000000000000
 Si   0.0208333333333333  0.3541666666666666  0.1875000000000000
 Si   0.1875000000000000  0.3541666666666666  0.1875000000000000
 Si   0.3541666666666666  0.3541666666666666  0.1875000000000000
 Si   0.5208333333333333  0.3541666666666666  0.1875000000000000
 Si   0.6875000000000000  0.3541666666666666  0.1875000000000000
 Si   0.8541666666666666  0.3541666666666666  0.1875000000000000
 Si   0.0208333333333333  0.5208333333333333  0.1875000000000000
 Si   0.1875000000000000  0.5208333333333333  0.1875000000000000
 Si   0.3541666666666666  0.5208333333333333  0.1875000000000000
 Si   0.5208333333333333  0.5208333333333333  0.1875000000000000
 Si   0.6875000000000000  0.5208333333333333  0.1875000000000000
 Si   0.8541666666666666  0.5208333333333333  0.1875000000000000
 Si   0.0208333333333333  0.6875000000000000  0.1875000000000000
 Si   0.1875000000000000  0.6875000000000000  0.1875000000000000
 Si   0.3541666666666666  0.6875000000000000  0.1875000000000000
 Si   0.5208333333333333  0.6875000000000000  0.1875000000000000
 Si   0.6875000000000000  0.6875000000000000  0.1875000000000000
 Si   0.8541666666666666  0.6875000000000000  0.1875000000000000
 Si   0.0208333333333333  0.8541666666666666  0.1875000000000000
 Si   0.1875000000000000  0.8541666666666666  0.1875000000000000
 Si   0.3541666666666666  0.8541666666666666  0.1875000000000000
 Si   0.5208333333333333  0.8541666666666666  0.1875000000000000
 Si   0.6875000000000000  0.8541666666666666  0.1875000000000000
 Si   0.8541666666666666  0.8541666666666666  0.1875000000000000
 Si   0.0208333333333333  0.0208333333333333  0.3541666666666666
 Si   0.1875000000000000  0.0208333333333333  0.3541666666666666
 Si   0.3541666666666666  0.0208333333333333  0.3541666666666666
 Si   0.5208333333333333  0.0208333333333333  0.3541666666666666
 Si   0.6875000000000000  0.0208333333333333  0.3541666666666666
 Si   0.8541666666666666  0.0208333333333333  0.3541666666666666
 Si   0.0208333333333333  0.1875000000000000  0.3541666666666666
 Si   0.1875000000000000  0.1875000000000000  0.3541666666666666
 Si   0.3541666666666666  0.1875000000000000  0.3541666666666666
 Si   0.5208333333333333  0.1875000000000000  0.3541666666666666
 Si   0.6875000000000000  0.1875000000000000  0.3541666666666666
 Si   0.8541666666666666  0.1875000000000000  0.3541666666666666
 Si   0.0208333333333333  0.3541666666666666  0.3541666666666666
 Si   0.1875000000000000  0.3541666666666666  0.3541666666666666
 Si   0.3541666666666666  0.3541666666666666  0.3541666666666666
 Si   0.5208333333333333  0.3541666666666666  0.3541666666666666
 Si   0.6875000000000000  0.3541666666666666  0.3541666666666666
 Si   0.8541666666666666  0.3541666666666666  0.3541666666666666
 Si   0.0208333333333333  0.5208333333333333  0.3541666666666666
 Si   0.1875000000000000  0.5208333333333333  0.3541666666666666
 Si   0.3541666666666666  0.5208333333333333  0.3541666666666666
 Si   0.5208333333333333  0.5208333333333333  0.3541666666666666
 Si   0.6875000000000000  0.5208333333333333  0.3541666666666666
 Si   0.8541666666666666  0.5208333333333333  0.3541666666666666
 Si   0.0208333333333333  0.6875000000000000  0.3541666666666666
 Si   0.1875000000000000  0.6875000000000000  0.3541666666666666
 Si   0.3541666666666666  0.6875000000000000  0.3541666666666666
 Si   0.5208333333333333  0.6875000000000000  0.3541666666666666
 Si   0.6875000000000000  0.6875000000000000  0.3541666666666666
 Si   0.8541666666666666  0.6875000000000000  0.3541666666666666
 Si   0.0208333333333333  0.8541666666666666  0.3541666666666666
 Si   0.1875000000000000  0.8541666666666666  0.3541666666666666
 Si   0.3541666666666666  0.8541666666666666  0.3541666666666666
 Si   0.5208333333333333  0.8541666666666666  0.3541666666666666
 Si   0.6875000000000000  0.8541666666666666  0.3541666666666666
 Si   0.8541666666666666  0.8541666666666666  0.3541666666666666
 Si   0.0208333333333333  0.0208333333333333  0.5208333333333333
 Si   0.1875000000000000  0.0208333333333333  0.5208333333333333
 Si   0.3541666666666666  0.0208333333333333  0.5208333333333333
 Si   0.5208333333333333  0.0208333333333333  0.5208333333333333
 Si   0.6875000000000000  0.0208333333333333  0.5208333333333333
 Si   0.8541666666666666  0.0208333333333333  0.5208333333333333
 Si   0.0208333333333333  0.1875000000000000  0.5208333333333333
 Si   0.1875000000000000  0.1875000000000000  0.5208333333333333
 Si   0.3541666666666666  0.1875000000000000  0.5208333333333333
 Si   0.5208333333333333  0.1875000000000000  0.5208333333333333
 Si   0.6875000000000000  0.1875000000000000  0.5208333333333333
 Si   0.8541666666666666  0.1875000000000000  0.5208333333333333
 Si   0.0208333333333333  0.3541666666666666  0.5208333333333333
 Si   0.1875000000000000  0.3541666666666666  0.5208333333333333
 Si   0.3541666666666666  0.3541666666666666  0.5208333333333333
 Si   0.5208333333333333  0.3541666666666666  0.5208333333333333
 Si   0.6875000000000000  0.3541666666666666  0.5208333333333333
 Si   0.8541666666666666  0.3541666666666666  0.5208333333333333
 Si   0.0208333333333333  0.5208333333333333  0.5208333333333333
 Si   0.1875000000000000  0.5208333333333333  0.5208333333333333
 Si   0.3541666666666666  0.5208333333333333  0.5208333333333333
 Si   0.5208333333333333  0.5208333333333333  0.5208333333333333
 Si   0.6875000000000000  0.5208333333333333  0.5208333333333333
 Si   0.8541666666666666  0.5208333333333333  0.5208333333333333
 Si   0.0208333333333333  0.6875000000000000  0.5208333333333333
 Si   0.1875000000000000  0.6875000000000000  0.5208333333333333
 Si   0.3541666666666666  0.6875000000000000  0.5208333333333333
 Si   0.5208333333333333  0.6875000000000000  0.5208333333333333
 Si   0.6875000000000000  0.6875000000000000  0.5208333333333333
 Si   0.8541666666666666  0.6875000000000000  0.5208333333333333
 Si   0.0208333333333333  0.8541666666666666  0.5208333333333333
 Si   0.1875000000000000  0.8541666666666666  0.5208333333333333
 Si   0.3541666666666666  0.8541666666666666  0.5208333333333333
 Si   0.5208333333333333  0.8541666666666666  0.5208333333333333
 Si   0.6875000000000000  0.8541666666666666  0.5208333333333333
 Si   0.8541666666666666  0.8541666666666666  0.5208333333333333
 Si   0.0208333333333333  0.0208333333333333  0.6875000000000000
 Si   0.1875000000000000  0.0208333333333333  0.6875000000000000
 Si   0.3541666666666666  0.0208333333333333  0.6875000000000000
 Si   0.5208333333333333  0.0208333333333333  0.6875000000000000
 Si   0.6875000000000000  0.0208333333333333  0.6875000000000000
 Si   0.8541666666666666  0.0208333333333333  0.6875000000000000
 Si   0.0208333333333333  0.1875000000000000  0.6875000000000000
 Si   0.1875000000000000  0.1875000000000000  0.6875000000000000
 Si   0.3541666666666666  0.1875000000000000  0.6875000000000000
 Si   0.5208333333333333  0.1875000000000000  0.6875000000000000
 Si   0.6875000000000000  0.1875000000000000  0.6875000000000000
 Si   0.8541666666666666  0.1875000000000000  0.6875000000000000
 Si   0.0208333333333333  0.3541666666666666  0.6875000000000000
 Si   0.1875000000000000  0.3541666666666666  0.6875000000000000
 Si   0.3541666666666666  0.3541666666666666  0.6875000000000000
 Si   0.5208333333333333  0.3541666666666666  0.6875000000000000
 Si   0.6875000000000000  0.3541666666666666  0.6875000000000000
 Si   0.8541666666666666  0.3541666666666666  0.6875000000000000
 Si   0.0208333333333333  0.5208333333333333  0.6875000000000000
 Si   0.1875000000000000  0.5208333333333333  0.6875000000000000
 Si   0.3541666666666666  0.5208333333333333  0.6875000000000000
 Si   0.5208333333333333  0.5208333333333333  0.6875000000000000
 Si   0.6875000000000000  0.5208333333333333  0.6875000000000000
 Si   0.8541666666666666  0.5208333333333333  0.6875000000000000
 Si   0.0208333333333333  0.6875000000000000  0.6875000000000000
 Si   0.1875000000000000  0.6875000000000000  0.6875000000000000
 Si   0.3541666666666666  0.6875000000000000  0.6875000000000000
 Si   0.5208333333333333  0.6875000000000000  0.6875000000000000
 Si   0.6875000000000000  0.6875000000000000  0.6875000000000000
 Si   0.8541666666666666  0.6875000000000000  0.6875000000000000
 Si   0.0208333333333333  0.8541666666666666  0.6875000000000000
 Si   0.1875000000000000  0.8541666666666666  0.6875000000000000
 Si   0.3541666666666666  0.8541666666666666  0.6875000000000000
 Si   0.5208333333333333  0.8541666666666666  0.6875000000000000
 Si   0.6875000000000000  0.8541666666666666  0.6875000000000000
 Si   0.8541666666666666  0.8541666666666666  0.6875000000000000
 Si   0.0208333333333333  0.0208333333333333  0.8541666666666666
 Si   0.1875000000000000  0.0208333333333333  0.8541666666666666
 Si   0.3541666666666666  0.0208333333333333  0.8541666666666666
 Si   0.5208333333333333  0.0208333333333333  0.8541666666666666
 Si   0.6875000000000000  0.0208333333333333  0.8541666666666666
 Si   0.8541666666666666  0.0208333333333333  0.8541666666666666
 Si   0.0208333333333333  0.1875000000000000  0.8541666666666666
 Si   0.1875000000000000  0.1875000000000000  0.8541666666666666
 Si   0.3541666666666666  0.1875000000000000  0.8541666666666666
 Si   0.5208333333333333  0.1875000000000000  0.8541666666666666
 Si   0.6875000000000000  0.1875000000000000  0.8541666666666666
 Si   0.8541666666666666  0.1875000000000000  0.8541666666666666
 Si   0.0208333333333333  0.3541666666666666  0.8541666666666666
 Si   0.1875000000000000  0.3541666666666666  0.8541666666666666
 Si   0.3541666666666666  0.3541666666666666  0.8541666666666666
 Si   0.5208333333333333  0.3541666666666666  0.8541666666666666
 Si   0.6875000000000000  0.3541666666666666  0.8541666666666666
 Si   0.8541666666666666  0.3541666666666666  0.8541666666666666
 Si   0.0208333333333333  0.5208333333333333  0.8541666666666666
 Si   0.1875000000000000  0.5208333333333333  0.8541666666666666
 Si   0.3541666666666666  0.5208333333333333  0.8541666666666666
 Si   0.5208333333333333  0.5208333333333333  0.8541666666666666
 Si   0.6875000000000000  0.5208333333333333  0.8541666666666666
 Si   0.8541666666666666  0.5208333333333333  0.8541666666666666
 Si   0.0208333333333333  0.6875000000000000  0.8541666666666666
 Si   0.1875000000000000  0.6875000000000000  0.8541666666666666
 Si   0.3541666666666666  0.6875000000000000  0.8541666666666666
 Si   0.5208333333333333  0.6875000000000000  0.8541666666666666
 Si   0.6875000000000000  0.6875000000000000  0.8541666666666666
 Si   0.8541666666666666  0.6875000000000000  0.8541666666666666
 Si   0.0208333333333333  0.8541666666666666  0.8541666666666666
 Si   0.1875000000000000  0.8541666666666666  0.8541666666666666
 Si   0.3541666666666666  0.8541666666666666  0.8541666666666666
 Si   0.5208333333333333  0.8541666666666666  0.8541666666666666
 Si   0.6875000000000000  0.8541666666666666  0.8541666666666666
 Si   0.8541666666666666  0.8541666666666666  0.8541666666666666