&CONTROL
   calculation      = 'scf'
   verbosity        = 'high'
   prefix           = 'Tl-104'
   disk_io          = 'nowf'
   pseudo_dir       = './'
/
&SYSTEM
   ecutwfc          = 100
   occupations      = 'smearing'
   degauss          = 0.0007349862
   smearing         = 'gaussian'
   nspin            = 1
   ntyp             = 1
   nat              = 2
   ibrav            = 0
/
&ELECTRONS
   conv_thr         = 1e-10
/
&IONS
/
&CELL
/

ATOMIC_SPECIES
Tl 204.38 Tl_ONCV_PBE-1.2.upf

K_POINTS automatic
32 32 18  1 1 1

CELL_PARAMETERS angstrom
3.63982581619418 0.00000000000000 0.00000000000000
1.81991290809709 3.15218162217459 0.00000000000000
0.00000000000000 0.00000000000000 5.71619469838325

ATOMIC_POSITIONS angstrom
Tl 1.8199220077 1.0507324610 1.4290486746 
Tl 3.6398167166 2.1014491611 4.2871460238 

