&CONTROL
   calculation      = 'scf'
   verbosity        = 'high'
   prefix           = 'Tl-100'
   disk_io          = 'nowf'
   pseudo_dir       = './'
/
&SYSTEM
   ecutwfc          = 100
   occupations      = 'smearing'
   degauss          = 0.0007349862
   smearing         = 'gaussian'
   nspin            = 1
   ntyp             = 1
   nat              = 2
   ibrav            = 0
/
&ELECTRONS
   conv_thr         = 1e-10
/
&IONS
/
&CELL
/

ATOMIC_SPECIES
Tl 204.38 Tl_ONCV_PBE-1.2.upf

K_POINTS automatic
32 32 18  1 1 1

CELL_PARAMETERS angstrom
3.59255000000000 0.00000000000000 0.00000000000000
1.79627500000000 3.11123956436579 0.00000000000000
0.00000000000000 0.00000000000000 5.64195000000000

ATOMIC_POSITIONS angstrom
Tl 1.7962839814 1.0370850402 1.4104875000 
Tl 3.5925410186 2.0741545242 4.2314625000 

