&CONTROL
   calculation      = 'scf'
   verbosity        = 'high'
   prefix           = 'Tl-96'
   disk_io          = 'nowf'
   pseudo_dir       = './'
/
&SYSTEM
   ecutwfc          = 100
   occupations      = 'smearing'
   degauss          = 0.0007349862
   smearing         = 'gaussian'
   nspin            = 1
   ntyp             = 1
   nat              = 2
   ibrav            = 0
/
&ELECTRONS
   conv_thr         = 1e-10
/
&IONS
/
&CELL
/

ATOMIC_SPECIES
Tl 204.38 Tl_ONCV_PBE-1.2.upf

K_POINTS automatic
32 32 18  1 1 1

CELL_PARAMETERS angstrom
3.54399607505437 0.00000000000000 0.00000000000000
1.77199803752719 3.06919063190943 0.00000000000000
0.00000000000000 0.00000000000000 5.56569808510752

ATOMIC_POSITIONS angstrom
Tl 1.7720068975 1.0230686593 1.3914245213 
Tl 3.5439872151 2.0461219726 4.1742735638 

