&CONTROL
   calculation      = 'scf'
   verbosity        = 'high'
   prefix           = 'Tl-98'
   disk_io          = 'nowf'
   pseudo_dir       = './'
/
&SYSTEM
   ecutwfc          = 100
   occupations      = 'smearing'
   degauss          = 0.0007349862
   smearing         = 'gaussian'
   nspin            = 1
   ntyp             = 1
   nat              = 2
   ibrav            = 0
/
&ELECTRONS
   conv_thr         = 1e-10
/
&IONS
/
&CELL
/

ATOMIC_SPECIES
Tl 204.38 Tl_ONCV_PBE-1.2.upf

K_POINTS automatic
32 32 18  1 1 1

CELL_PARAMETERS angstrom
3.56843819967194 0.00000000000000 0.00000000000000
1.78421909983597 3.09035813275071 0.00000000000000
0.00000000000000 0.00000000000000 5.60408342281641

ATOMIC_POSITIONS angstrom
Tl 1.7842280209 1.0301245282 1.4010208557 
Tl 3.5684292786 2.0602336046 4.2030625671 

