&CONTROL
   calculation      = 'scf'
   verbosity        = 'high'
   prefix           = 'Mn-106'
   disk_io          = 'nowf'
   pseudo_dir       = './'
/
&SYSTEM
   ecutwfc          = 100
   occupations      = 'smearing'
   degauss          = 0.0007349862
   smearing         = 'gaussian'
   nspin            = 2
   starting_magnetization(1) = 0.06666666666666667
   starting_magnetization(2) = -0.06666666666666667
   ntyp             = 2
   nat              = 4
   ibrav            = 0
/
&ELECTRONS
   conv_thr         = 1e-10
/
&IONS
/
&CELL
/

ATOMIC_SPECIES
Mn  54.938044 Mn_ONCV_PBE-1.2.upf
Mn1 54.938044 Mn_ONCV_PBE-1.2.upf

K_POINTS automatic
28 28 28  1 1 1

CELL_PARAMETERS angstrom
3.66603829527553 0.00000000000000 0.00000000000000
0.00000000000000 3.66603829527553 0.00000000000000
0.00000000000000 0.00000000000000 3.66603829527553

ATOMIC_POSITIONS angstrom
Mn  0.9165095738 0.9165095738 0.9165095738
Mn1 0.9165095738 2.7495287215 2.7495287215
Mn  2.7495287215 0.9165095738 2.7495287215
Mn1 2.7495287215 2.7495287215 0.9165095738

