&CONTROL
   calculation      = 'scf'
   verbosity        = 'high'
   prefix           = 'Kr-104'
   disk_io          = 'nowf'
   pseudo_dir       = './'
/
&SYSTEM
   ecutwfc          = 100
   occupations      = 'smearing'
   degauss          = 0.0007349862
   smearing         = 'gaussian'
   nspin            = 1
   ntyp             = 1
   nat              = 4
   ibrav            = 0
/
&ELECTRONS
   conv_thr         = 1e-10
/
&IONS
/
&CELL
/

ATOMIC_SPECIES
Kr 83.798 Kr_ONCV_PBE-1.2.upf

K_POINTS automatic
16 16 16  1 1 1

CELL_PARAMETERS angstrom
6.51390575498106 0.00000000000000 0.00000000000000
0.00000000000000 6.51390575498106 0.00000000000000
0.00000000000000 0.00000000000000 6.51390575498106

ATOMIC_POSITIONS angstrom
Kr 1.6284764387 1.6284764387 1.6284764387 
Kr 1.6284764387 4.8854293162 4.8854293162 
Kr 4.8854293162 1.6284764387 4.8854293162 
Kr 4.8854293162 4.8854293162 1.6284764387 

