&CONTROL
   calculation      = 'scf'
   verbosity        = 'high'
   prefix           = 'Kr-96'
   disk_io          = 'nowf'
   pseudo_dir       = './'
/
&SYSTEM
   ecutwfc          = 100
   occupations      = 'smearing'
   degauss          = 0.0007349862
   smearing         = 'gaussian'
   nspin            = 1
   ntyp             = 1
   nat              = 4
   ibrav            = 0
/
&ELECTRONS
   conv_thr         = 1e-10
/
&IONS
/
&CELL
/

ATOMIC_SPECIES
Kr 83.798 Kr_ONCV_PBE-1.2.upf

K_POINTS automatic
16 16 16  1 1 1

CELL_PARAMETERS angstrom
6.34240691579716 0.00000000000000 0.00000000000000
0.00000000000000 6.34240691579716 0.00000000000000
0.00000000000000 0.00000000000000 6.34240691579716

ATOMIC_POSITIONS angstrom
Kr 1.5856017289 1.5856017289 1.5856017289 
Kr 1.5856017289 4.7568051868 4.7568051868 
Kr 4.7568051868 1.5856017289 4.7568051868 
Kr 4.7568051868 4.7568051868 1.5856017289 

