&CONTROL
   calculation      = 'scf'
   verbosity        = 'high'
   prefix           = 'F-100'
   disk_io          = 'nowf'
   pseudo_dir       = './'
/
&SYSTEM
   ecutwfc          = 100
   occupations      = 'smearing'
   degauss          = 0.0007349862
   smearing         = 'gaussian'
   nspin            = 1
   ntyp             = 1
   nat              = 8
   ibrav            = 0
/
&ELECTRONS
   conv_thr         = 1e-10
/
&IONS
/
&CELL
/

ATOMIC_SPECIES
F 18.998403163 F_ONCV_PBE-1.2.upf

K_POINTS automatic
16 28 14  1 1 1

CELL_PARAMETERS angstrom
6.16310000000000 0.00000000000000 0.00000000000000
0.00000000000000 3.68505000000000 0.00000000000000
-0.81704339456428 0.00000000000000 6.87706483729061

ATOMIC_POSITIONS angstrom
F 1.4946822053 1.2171720150 0.6473381131 
F 3.8513744002 2.4678779850 6.2297267242 
F 4.2598960974 1.2171720150 2.7911943055 
F 1.0861605080 2.4678779850 4.0858705318 
F 4.5762322053 3.0596970150 0.6473381131 
F 0.7698244002 0.6253529850 6.2297267242 
F 1.1783460974 3.0596970150 2.7911943055 
F 4.1677105080 0.6253529850 4.0858705318 

