&CONTROL
   calculation      = 'scf'
   verbosity        = 'high'
   prefix           = 'F-104'
   disk_io          = 'nowf'
   pseudo_dir       = './'
/
&SYSTEM
   ecutwfc          = 100
   occupations      = 'smearing'
   degauss          = 0.0007349862
   smearing         = 'gaussian'
   nspin            = 1
   ntyp             = 1
   nat              = 8
   ibrav            = 0
/
&ELECTRONS
   conv_thr         = 1e-10
/
&IONS
/
&CELL
/

ATOMIC_SPECIES
F 18.998403163 F_ONCV_PBE-1.2.upf

K_POINTS automatic
16 28 14  1 1 1

CELL_PARAMETERS angstrom
6.24420272168413 0.00000000000000 0.00000000000000
0.00000000000000 3.73354306104754 0.00000000000000
-0.82779519853196 0.00000000000000 6.96756291058205

ATOMIC_POSITIONS angstrom
F 1.5143513320 1.2331892731 0.6558566968 
F 3.9020561912 2.5003537880 6.3117062138 
F 4.3159537904 1.2331892731 2.8279247585 
F 1.1004537327 2.5003537880 4.1396381521 
F 4.6364526928 3.0999608036 0.6558566968 
F 0.7799548303 0.6335822575 6.3117062138 
F 1.1938524296 3.0999608036 2.8279247585 
F 4.2225550936 0.6335822575 4.1396381521 

