&CONTROL
   calculation      = 'scf'
   verbosity        = 'high'
   prefix           = 'F-106'
   disk_io          = 'nowf'
   pseudo_dir       = './'
/
&SYSTEM
   ecutwfc          = 100
   occupations      = 'smearing'
   degauss          = 0.0007349862
   smearing         = 'gaussian'
   nspin            = 1
   ntyp             = 1
   nat              = 8
   ibrav            = 0
/
&ELECTRONS
   conv_thr         = 1e-10
/
&IONS
/
&CELL
/

ATOMIC_SPECIES
F 18.998403163 F_ONCV_PBE-1.2.upf

K_POINTS automatic
16 28 14  1 1 1

CELL_PARAMETERS angstrom
6.28397578587036 0.00000000000000 0.00000000000000
0.00000000000000 3.75732423126699 0.00000000000000
-0.83306792157312 0.00000000000000 7.01194348873045

ATOMIC_POSITIONS angstrom
F 1.5239971419 1.2410441936 0.6600342406 
F 3.9269107224 2.5162800377 6.3519092481 
F 4.3434446831 1.2410441936 2.8459375038 
F 1.1074631812 2.5162800377 4.1660059850 
F 4.6659850349 3.1197063092 0.6600342406 
F 0.7849228294 0.6376179220 6.3519092481 
F 1.2014567902 3.1197063092 2.8459375038 
F 4.2494510741 0.6376179220 4.1660059850 

