&CONTROL
   calculation      = 'scf'
   verbosity        = 'high'
   prefix           = 'F-102'
   disk_io          = 'nowf'
   pseudo_dir       = './'
/
&SYSTEM
   ecutwfc          = 100
   occupations      = 'smearing'
   degauss          = 0.0007349862
   smearing         = 'gaussian'
   nspin            = 1
   ntyp             = 1
   nat              = 8
   ibrav            = 0
/
&ELECTRONS
   conv_thr         = 1e-10
/
&IONS
/
&CELL
/

ATOMIC_SPECIES
F 18.998403163 F_ONCV_PBE-1.2.upf

K_POINTS automatic
16 28 14  1 1 1

CELL_PARAMETERS angstrom
6.20391642128993 0.00000000000000 0.00000000000000
0.00000000000000 3.70945501586449 0.00000000000000
-0.82245443566449 0.00000000000000 6.92260964033405

ATOMIC_POSITIONS angstrom
F 1.5045810514 1.2252329917 0.6516252454 
F 3.8768809342 2.4842220241 6.2709843949 
F 4.2881081521 1.2252329917 2.8096795747 
F 1.0933538336 2.4842220241 4.1129300656 
F 4.6065392620 3.0799604997 0.6516252454 
F 0.7749227236 0.6294945162 6.2709843949 
F 1.1861499414 3.0799604997 2.8096795747 
F 4.1953120442 0.6294945162 4.1129300656 

