&CONTROL
   calculation      = 'scf'
   verbosity        = 'high'
   prefix           = 'F-94'
   disk_io          = 'nowf'
   pseudo_dir       = './'
/
&SYSTEM
   ecutwfc          = 100
   occupations      = 'smearing'
   degauss          = 0.0007349862
   smearing         = 'gaussian'
   nspin            = 1
   ntyp             = 1
   nat              = 8
   ibrav            = 0
/
&ELECTRONS
   conv_thr         = 1e-10
/
&IONS
/
&CELL
/

ATOMIC_SPECIES
F 18.998403163 F_ONCV_PBE-1.2.upf

K_POINTS automatic
16 28 14  1 1 1

CELL_PARAMETERS angstrom
6.03728714662488 0.00000000000000 0.00000000000000
0.00000000000000 3.60982378992228 0.00000000000000
-0.80036435953298 0.00000000000000 6.73667718334612

ATOMIC_POSITIONS angstrom
F 1.4641699252 1.1923247978 0.6341234233 
F 3.7727528619 2.4174989921 6.1025537601 
F 4.1729350416 1.1923247978 2.7342151684 
F 1.0639877455 2.4174989921 4.0024620149 
F 4.4828134985 2.9972366928 0.6341234233 
F 0.7541092886 0.6125870971 6.1025537601 
F 1.1542914683 2.9972366928 2.7342151684 
F 4.0826313188 0.6125870971 4.0024620149 

