&CONTROL
   calculation      = 'scf'
   verbosity        = 'high'
   prefix           = 'F-96'
   disk_io          = 'nowf'
   pseudo_dir       = './'
/
&SYSTEM
   ecutwfc          = 100
   occupations      = 'smearing'
   degauss          = 0.0007349862
   smearing         = 'gaussian'
   nspin            = 1
   ntyp             = 1
   nat              = 8
   ibrav            = 0
/
&ELECTRONS
   conv_thr         = 1e-10
/
&IONS
/
&CELL
/

ATOMIC_SPECIES
F 18.998403163 F_ONCV_PBE-1.2.upf

K_POINTS automatic
16 28 14  1 1 1

CELL_PARAMETERS angstrom
6.07980465412245 0.00000000000000 0.00000000000000
0.00000000000000 3.63524592180460 0.00000000000000
-0.80600091397055 0.00000000000000 6.78412013507184

ATOMIC_POSITIONS angstrom
F 1.4744813208 1.2007217280 0.6385892283 
F 3.7993224194 2.4345241938 6.1455309068 
F 4.2023228764 1.2007217280 2.7534708392 
F 1.0714808638 2.4345241938 4.0306492959 
F 4.5143836478 3.0183446889 0.6385892283 
F 0.7594200923 0.6169012329 6.1455309068 
F 1.1624205493 3.0183446889 2.7534708392 
F 4.1113831908 0.6169012329 4.0306492959 

