&CONTROL
   calculation      = 'scf'
   verbosity        = 'high'
   prefix           = 'F-98'
   disk_io          = 'nowf'
   pseudo_dir       = './'
/
&SYSTEM
   ecutwfc          = 100
   occupations      = 'smearing'
   degauss          = 0.0007349862
   smearing         = 'gaussian'
   nspin            = 1
   ntyp             = 1
   nat              = 8
   ibrav            = 0
/
&ELECTRONS
   conv_thr         = 1e-10
/
&IONS
/
&CELL
/

ATOMIC_SPECIES
F 18.998403163 F_ONCV_PBE-1.2.upf

K_POINTS automatic
16 28 14  1 1 1

CELL_PARAMETERS angstrom
6.12173566642027 0.00000000000000 0.00000000000000
0.00000000000000 3.66031737559702 0.00000000000000
-0.81155971662268 0.00000000000000 6.83090864901212

ATOMIC_POSITIONS angstrom
F 1.4846504788 1.2090028292 0.6429934311 
F 3.8255254710 2.4513145464 6.1879152179 
F 4.2313053293 1.2090028292 2.7724608934 
F 1.0788706205 2.4513145464 4.0584477556 
F 4.5455183120 3.0391615170 0.6429934311 
F 0.7646576378 0.6211558586 6.1879152179 
F 1.1704374961 3.0391615170 2.7724608934 
F 4.1397384537 0.6211558586 4.0584477556 

