&CONTROL
   calculation      = 'scf'
   verbosity        = 'high'
   prefix           = 'Cs-100'
   disk_io          = 'nowf'
   pseudo_dir       = './'
/
&SYSTEM
   ecutwfc          = 100
   occupations      = 'smearing'
   degauss          = 0.0007349862
   smearing         = 'gaussian'
   nspin            = 1
   ntyp             = 1
   nat              = 2
   ibrav            = 0
/
&ELECTRONS
   conv_thr         = 1e-10
/
&IONS
/
&CELL
/

ATOMIC_SPECIES
Cs 132.90545196 Cs_ONCV_PBE-1.2.upf

K_POINTS automatic
16 16 16  1 1 1

CELL_PARAMETERS angstrom
6.16153000000000 0.00000000000000 0.00000000000000
0.00000000000000 6.16153000000000 0.00000000000000
0.00000000000000 0.00000000000000 6.16153000000000

ATOMIC_POSITIONS angstrom
Cs 1.5403825000 1.5403825000 1.5403825000 
Cs 4.6211475000 4.6211475000 4.6211475000 

