&control
calculation = 'scf',
prefix='iron',
pseudo_dir='.',
verbosity='high'
/
&system    
ibrav= 3, celldm(1)=5.107, nat=1, ntyp= 1,
ecutwfc = 40.0, occupations='smearing',
smearing='gauss',
degauss=0.01,
nspin = 2,
starting_magnetization(1)=0.1,
/
&electrons
conv_thr = 1D-10,
/
ATOMIC_SPECIES
Fe 55.847 Fe_ONCV_PBE-1.2.upf

ATOMIC_POSITIONS {crystal}
Fe 0.000 0.0000 0.0000

K_POINTS {tpiba}
29
 0.0000000   0.0000000   0.0000000  0.0019531
 0.0000000  -0.1250000   0.1250000  0.0234375
 0.0000000  -0.2500000   0.2500000  0.0234375
 0.0000000  -0.3750000   0.3750000  0.0234375
 0.0000000   0.5000000  -0.5000000  0.0117188
-0.1250000  -0.1250000   0.2500000  0.0468750
-0.1250000  -0.2500000   0.3750000  0.0937500
-0.1250000   0.6250000  -0.5000000  0.0937500
-0.2500000   0.7500000  -0.5000000  0.0468750
-0.2500000   0.6250000  -0.3750000  0.0468750
 0.0000000   0.0000000   0.2500000  0.0117188
 0.0000000  -0.1250000   0.3750000  0.0468750
 0.0000000  -0.2500000   0.5000000  0.0468750
 0.0000000   0.6250000  -0.3750000  0.0234375
-0.1250000  -0.1250000   0.5000000  0.0468750
-0.1250000   0.7500000  -0.3750000  0.0937500
-0.2500000   0.2500000   0.2500000  0.0156250
-0.2500000   0.7500000  -0.2500000  0.0156250
 0.6250000  -0.6250000   0.2500000  0.0468750
 0.5000000  -0.5000000   0.2500000  0.0234375
 0.5000000  -0.6250000   0.3750000  0.0468750
 0.0000000   0.0000000   0.5000000  0.0117188
 0.0000000  -0.1250000   0.6250000  0.0468750
 0.0000000   0.7500000  -0.2500000  0.0234375
-0.1250000   0.8750000  -0.2500000  0.0468750
 0.5000000  -0.5000000   0.5000000  0.0039062
 0.0000000   0.0000000   0.7500000  0.0117188
 0.0000000   0.8750000  -0.1250000  0.0234375
 0.0000000   0.0000000  -1.0000000  0.0019531
