&CONTROL
   calculation      = 'scf'
   verbosity        = 'high'
   prefix           = 'He-100'
   disk_io          = 'nowf'
   pseudo_dir       = './'
/
&SYSTEM
   ecutwfc          = 100
   occupations      = 'smearing'
   degauss          = 0.0007349862
   smearing         = 'gaussian'
   nspin            = 1
   ntyp             = 1
   nat              = 2
   ibrav            = 0
/
&ELECTRONS
   conv_thr         = 1e-10
/
&IONS
/
&CELL
/

ATOMIC_SPECIES
He 4.002602 He_ONCV_PBE-1.2.upf

K_POINTS automatic
40 40 22  1 1 1

CELL_PARAMETERS angstrom
2.92661000000000 0.00000000000000 0.00000000000000
1.46330500000000 2.53451860696958 0.00000000000000
0.00000000000000 0.00000000000000 4.77913000000000

ATOMIC_POSITIONS angstrom
He 1.4633123165 0.8448437599 1.1947825000 
He 2.9266026835 1.6896748471 3.5843475000 

