&CONTROL
   calculation      = 'scf'
   verbosity        = 'high'
   prefix           = 'He-102'
   disk_io          = 'nowf'
   pseudo_dir       = './'
/
&SYSTEM
   ecutwfc          = 100
   occupations      = 'smearing'
   degauss          = 0.0007349862
   smearing         = 'gaussian'
   nspin            = 1
   ntyp             = 1
   nat              = 2
   ibrav            = 0
/
&ELECTRONS
   conv_thr         = 1e-10
/
&IONS
/
&CELL
/

ATOMIC_SPECIES
He 4.002602 He_ONCV_PBE-1.2.upf

K_POINTS automatic
40 40 22  1 1 1

CELL_PARAMETERS angstrom
2.94599208802572 0.00000000000000 0.00000000000000
1.47299604401286 2.55130398757824 0.00000000000000
0.00000000000000 0.00000000000000 4.81078078994002

ATOMIC_POSITIONS angstrom
He 1.4730034090 0.8504389147 1.2026951975 
He 2.9459847230 1.7008650729 3.6080855925 

