&CONTROL
   calculation      = 'scf'
   verbosity        = 'high'
   prefix           = 'He-106'
   disk_io          = 'nowf'
   pseudo_dir       = './'
/
&SYSTEM
   ecutwfc          = 100
   occupations      = 'smearing'
   degauss          = 0.0007349862
   smearing         = 'gaussian'
   nspin            = 1
   ntyp             = 1
   nat              = 2
   ibrav            = 0
/
&ELECTRONS
   conv_thr         = 1e-10
/
&IONS
/
&CELL
/

ATOMIC_SPECIES
He 4.002602 He_ONCV_PBE-1.2.upf

K_POINTS automatic
40 40 22  1 1 1

CELL_PARAMETERS angstrom
2.98400908222908 0.00000000000000 0.00000000000000
1.49200454111454 2.58422767033387 0.00000000000000
0.00000000000000 0.00000000000000 4.87286222802269

ATOMIC_POSITIONS angstrom
He 1.4920120011 0.8614135305 1.2182155570 
He 2.9840016222 1.7228141398 3.6546466710 

