&CONTROL
   calculation      = 'scf'
   verbosity        = 'high'
   prefix           = 'He-104'
   disk_io          = 'nowf'
   pseudo_dir       = './'
/
&SYSTEM
   ecutwfc          = 100
   occupations      = 'smearing'
   degauss          = 0.0007349862
   smearing         = 'gaussian'
   nspin            = 1
   ntyp             = 1
   nat              = 2
   ibrav            = 0
/
&ELECTRONS
   conv_thr         = 1e-10
/
&IONS
/
&CELL
/

ATOMIC_SPECIES
He 4.002602 He_ONCV_PBE-1.2.upf

K_POINTS automatic
40 40 22  1 1 1

CELL_PARAMETERS angstrom
2.96512244281417 0.00000000000000 0.00000000000000
1.48256122140709 2.56787136080844 0.00000000000000
0.00000000000000 0.00000000000000 4.84202050157912

ATOMIC_POSITIONS angstrom
He 1.4825686342 0.8559614001 1.2105051254 
He 2.9651150300 1.7119099608 3.6315153762 

