&CONTROL
   calculation      = 'scf'
   verbosity        = 'high'
   prefix           = 'He-96'
   disk_io          = 'nowf'
   pseudo_dir       = './'
/
&SYSTEM
   ecutwfc          = 100
   occupations      = 'smearing'
   degauss          = 0.0007349862
   smearing         = 'gaussian'
   nspin            = 1
   ntyp             = 1
   nat              = 2
   ibrav            = 0
/
&ELECTRONS
   conv_thr         = 1e-10
/
&IONS
/
&CELL
/

ATOMIC_SPECIES
He 4.002602 He_ONCV_PBE-1.2.upf

K_POINTS automatic
40 40 22  1 1 1

CELL_PARAMETERS angstrom
2.88705636754252 0.00000000000000 0.00000000000000
1.44352818377126 2.50026415644944 0.00000000000000
0.00000000000000 0.00000000000000 4.71453924431799

ATOMIC_POSITIONS angstrom
He 1.4435354014 0.8334255526 1.1786348111 
He 2.8870491499 1.6668386039 3.5359044332 

