&CONTROL
   calculation      = 'scf'
   verbosity        = 'high'
   prefix           = 'He-94'
   disk_io          = 'nowf'
   pseudo_dir       = './'
/
&SYSTEM
   ecutwfc          = 100
   occupations      = 'smearing'
   degauss          = 0.0007349862
   smearing         = 'gaussian'
   nspin            = 1
   ntyp             = 1
   nat              = 2
   ibrav            = 0
/
&ELECTRONS
   conv_thr         = 1e-10
/
&IONS
/
&CELL
/

ATOMIC_SPECIES
He 4.002602 He_ONCV_PBE-1.2.upf

K_POINTS automatic
40 40 22  1 1 1

CELL_PARAMETERS angstrom
2.86686650162805 0.00000000000000 0.00000000000000
1.43343325081403 2.48277921966851 0.00000000000000
0.00000000000000 0.00000000000000 4.68156935974580

ATOMIC_POSITIONS angstrom
He 1.4334404180 0.8275972112 1.1703923399 
He 2.8668593345 1.6551820085 3.5111770198 

