&CONTROL
   calculation      = 'scf'
   verbosity        = 'high'
   prefix           = 'Zn-106'
   disk_io          = 'nowf'
   pseudo_dir       = './'
/
&SYSTEM
   ecutwfc          = 100
   occupations      = 'smearing'
   degauss          = 0.0007349862
   smearing         = 'gaussian'
   nspin            = 1
   ntyp             = 1
   nat              = 2
   ibrav            = 0
/
&ELECTRONS
   conv_thr         = 1e-10
/
&IONS
/
&CELL
/

ATOMIC_SPECIES
Zn 65.38 Zn_ONCV_PBE-1.2.upf

K_POINTS automatic
44 44 20  1 1 1

CELL_PARAMETERS angstrom
2.71389325331299 0.00000000000000 0.00000000000000
1.35694662665650 2.35030050052824 0.00000000000000
0.00000000000000 0.00000000000000 5.10211197501610

ATOMIC_POSITIONS angstrom
Zn 1.3569534114 0.7834374173 1.2755279938 
Zn 2.7138864686 1.5668630832 3.8265839813 

