&CONTROL
   calculation      = 'scf'
   verbosity        = 'high'
   prefix           = 'Zn-98'
   disk_io          = 'nowf'
   pseudo_dir       = './'
/
&SYSTEM
   ecutwfc          = 100
   occupations      = 'smearing'
   degauss          = 0.0007349862
   smearing         = 'gaussian'
   nspin            = 1
   ntyp             = 1
   nat              = 2
   ibrav            = 0
/
&ELECTRONS
   conv_thr         = 1e-10
/
&IONS
/
&CELL
/

ATOMIC_SPECIES
Zn 65.38 Zn_ONCV_PBE-1.2.upf

K_POINTS automatic
44 44 20  1 1 1

CELL_PARAMETERS angstrom
2.64382577046522 0.00000000000000 0.00000000000000
1.32191288523261 2.28962028040284 0.00000000000000
0.00000000000000 0.00000000000000 4.97038529679821

ATOMIC_POSITIONS angstrom
Zn 1.3219194948 0.7632105762 1.2425963242 
Zn 2.6438191609 1.5264097042 3.7277889726 

