&CONTROL
   calculation      = 'scf'
   verbosity        = 'high'
   prefix           = 'Br-104'
   disk_io          = 'nowf'
   pseudo_dir       = './'
/
&SYSTEM
   ecutwfc          = 100
   occupations      = 'smearing'
   degauss          = 0.0007349862
   smearing         = 'gaussian'
   nspin            = 1
   ntyp             = 1
   nat              = 8
   ibrav            = 0
/
&ELECTRONS
   conv_thr         = 1e-10
/
&IONS
/
&CELL
/

ATOMIC_SPECIES
Br 79.904 Br_ONCV_PBE-1.2.upf

K_POINTS automatic
12 24 12  1 1 1

CELL_PARAMETERS angstrom
8.33688347027471 0.00000000000000 0.00000000000000
0.00000000000000 4.28293887936307 0.00000000000000
0.00000000000000 0.00000000000000 9.15210192137054

ATOMIC_POSITIONS angstrom
Br 2.0842208676 1.6092714545 8.0798416603 
Br 2.0842208676 0.5321979851 3.5037906996 
Br 2.0842208676 3.7507408942 5.6483112218 
Br 2.0842208676 2.6736674248 1.0722602611 
Br 6.2526626027 3.7507408942 8.0798416603 
Br 6.2526626027 2.6736674248 3.5037906996 
Br 6.2526626027 1.6092714545 5.6483112218 
Br 6.2526626027 0.5321979851 1.0722602611 

