&CONTROL
   calculation      = 'scf'
   verbosity        = 'high'
   prefix           = 'Br-100'
   disk_io          = 'nowf'
   pseudo_dir       = './'
/
&SYSTEM
   ecutwfc          = 100
   occupations      = 'smearing'
   degauss          = 0.0007349862
   smearing         = 'gaussian'
   nspin            = 1
   ntyp             = 1
   nat              = 8
   ibrav            = 0
/
&ELECTRONS
   conv_thr         = 1e-10
/
&IONS
/
&CELL
/

ATOMIC_SPECIES
Br 79.904 Br_ONCV_PBE-1.2.upf

K_POINTS automatic
12 24 12  1 1 1

CELL_PARAMETERS angstrom
8.22860000000000 0.00000000000000 0.00000000000000
0.00000000000000 4.22731000000000 0.00000000000000
0.00000000000000 0.00000000000000 9.03323000000000

ATOMIC_POSITIONS angstrom
Br 2.0571500000 1.5883694594 7.9748967732 
Br 2.0571500000 0.5252855406 3.4582817732 
Br 2.0571500000 3.7020244594 5.5749482268 
Br 2.0571500000 2.6389405406 1.0583332268 
Br 6.1714500000 3.7020244594 7.9748967732 
Br 6.1714500000 2.6389405406 3.4582817732 
Br 6.1714500000 1.5883694594 5.5749482268 
Br 6.1714500000 0.5252855406 1.0583332268 

