&CONTROL
   calculation      = 'scf'
   verbosity        = 'high'
   prefix           = 'I-102'
   disk_io          = 'nowf'
   pseudo_dir       = './'
/
&SYSTEM
   ecutwfc          = 100
   occupations      = 'smearing'
   degauss          = 0.0007349862
   smearing         = 'gaussian'
   nspin            = 1
   ntyp             = 1
   nat              = 8
   ibrav            = 0
/
&ELECTRONS
   conv_thr         = 1e-10
/
&IONS
/
&CELL
/

ATOMIC_SPECIES
I 126.90447 I_ONCV_PBE-1.2.upf

K_POINTS automatic
12 22 10  1 1 1

CELL_PARAMETERS angstrom
8.63381304612419 0.00000000000000 0.00000000000000
0.00000000000000 4.58438127633286 0.00000000000000
0.00000000000000 0.00000000000000 10.25125441584537

ATOMIC_POSITIONS angstrom
I 2.1584532615 1.6691732227 9.0064445921 
I 2.1584532615 0.6230174155 3.8808173842 
I 2.1584532615 3.9613638609 6.3704370316 
I 2.1584532615 2.9152080536 1.2448098237 
I 6.4753597846 3.9613638609 9.0064445921 
I 6.4753597846 2.9152080536 3.8808173842 
I 6.4753597846 1.6691732227 6.3704370316 
I 6.4753597846 0.6230174155 1.2448098237 

