&CONTROL
   calculation      = 'scf'
   verbosity        = 'high'
   prefix           = 'I-104'
   disk_io          = 'nowf'
   pseudo_dir       = './'
/
&SYSTEM
   ecutwfc          = 100
   occupations      = 'smearing'
   degauss          = 0.0007349862
   smearing         = 'gaussian'
   nspin            = 1
   ntyp             = 1
   nat              = 8
   ibrav            = 0
/
&ELECTRONS
   conv_thr         = 1e-10
/
&IONS
/
&CELL
/

ATOMIC_SPECIES
I 126.90447 I_ONCV_PBE-1.2.upf

K_POINTS automatic
12 22 10  1 1 1

CELL_PARAMETERS angstrom
8.68987833815970 0.00000000000000 0.00000000000000
0.00000000000000 4.61415082006593 0.00000000000000
0.00000000000000 0.00000000000000 10.31782286821796

ATOMIC_POSITIONS angstrom
I 2.1724695845 1.6800123136 9.0649296373 
I 2.1724695845 0.6270630964 3.9060182032 
I 2.1724695845 3.9870877236 6.4118046650 
I 2.1724695845 2.9341385065 1.2528932309 
I 6.5174087536 3.9870877236 9.0649296373 
I 6.5174087536 2.9341385065 3.9060182032 
I 6.5174087536 1.6800123136 6.4118046650 
I 6.5174087536 0.6270630964 1.2528932309 

