&CONTROL
   calculation      = 'scf'
   verbosity        = 'high'
   prefix           = 'I-100'
   disk_io          = 'nowf'
   pseudo_dir       = './'
/
&SYSTEM
   ecutwfc          = 100
   occupations      = 'smearing'
   degauss          = 0.0007349862
   smearing         = 'gaussian'
   nspin            = 1
   ntyp             = 1
   nat              = 8
   ibrav            = 0
/
&ELECTRONS
   conv_thr         = 1e-10
/
&IONS
/
&CELL
/

ATOMIC_SPECIES
I 126.90447 I_ONCV_PBE-1.2.upf

K_POINTS automatic
12 22 10  1 1 1

CELL_PARAMETERS angstrom
8.57701000000000 0.00000000000000 0.00000000000000
0.00000000000000 4.55422000000000 0.00000000000000
0.00000000000000 0.00000000000000 10.18381000000000

ATOMIC_POSITIONS angstrom
I 2.1442525000 1.6581915020 8.9471899517 
I 2.1442525000 0.6189184980 3.8552849517 
I 2.1442525000 3.9353015020 6.3285250483 
I 2.1442525000 2.8960284980 1.2366200483 
I 6.4327575000 3.9353015020 8.9471899517 
I 6.4327575000 2.8960284980 3.8552849517 
I 6.4327575000 1.6581915020 6.3285250483 
I 6.4327575000 0.6189184980 1.2366200483 

