&CONTROL
   calculation      = 'scf'
   verbosity        = 'high'
   prefix           = 'I-106'
   disk_io          = 'nowf'
   pseudo_dir       = './'
/
&SYSTEM
   ecutwfc          = 100
   occupations      = 'smearing'
   degauss          = 0.0007349862
   smearing         = 'gaussian'
   nspin            = 1
   ntyp             = 1
   nat              = 8
   ibrav            = 0
/
&ELECTRONS
   conv_thr         = 1e-10
/
&IONS
/
&CELL
/

ATOMIC_SPECIES
I 126.90447 I_ONCV_PBE-1.2.upf

K_POINTS automatic
12 22 10  1 1 1

CELL_PARAMETERS angstrom
8.74522937404357 0.00000000000000 0.00000000000000
0.00000000000000 4.64354110813171 0.00000000000000
0.00000000000000 0.00000000000000 10.38354325711159

ATOMIC_POSITIONS angstrom
I 2.1863073435 1.6907133175 9.1226695994 
I 2.1863073435 0.6310572366 3.9308979708 
I 2.1863073435 4.0124838715 6.4526452863 
I 2.1863073435 2.9528277907 1.2608736577 
I 6.5589220305 4.0124838715 9.1226695994 
I 6.5589220305 2.9528277907 3.9308979708 
I 6.5589220305 1.6907133175 6.4526452863 
I 6.5589220305 0.6310572366 1.2608736577 

