&CONTROL
   calculation      = 'scf'
   verbosity        = 'high'
   prefix           = 'I-94'
   disk_io          = 'nowf'
   pseudo_dir       = './'
/
&SYSTEM
   ecutwfc          = 100
   occupations      = 'smearing'
   degauss          = 0.0007349862
   smearing         = 'gaussian'
   nspin            = 1
   ntyp             = 1
   nat              = 8
   ibrav            = 0
/
&ELECTRONS
   conv_thr         = 1e-10
/
&IONS
/
&CELL
/

ATOMIC_SPECIES
I 126.90447 I_ONCV_PBE-1.2.upf

K_POINTS automatic
12 22 10  1 1 1

CELL_PARAMETERS angstrom
8.40191985031446 0.00000000000000 0.00000000000000
0.00000000000000 4.46125064803458 0.00000000000000
0.00000000000000 0.00000000000000 9.97591880979862

ATOMIC_POSITIONS angstrom
I 2.1004799626 1.6243413609 8.7645429887 
I 2.1004799626 0.6062839631 3.7765835838 
I 2.1004799626 3.8549666850 6.1993352260 
I 2.1004799626 2.8369092871 1.2113758211 
I 6.3014398877 3.8549666850 8.7645429887 
I 6.3014398877 2.8369092871 3.7765835838 
I 6.3014398877 1.6243413609 6.1993352260 
I 6.3014398877 0.6062839631 1.2113758211 

