&CONTROL
   calculation      = 'scf'
   verbosity        = 'high'
   prefix           = 'I-96'
   disk_io          = 'nowf'
   pseudo_dir       = './'
/
&SYSTEM
   ecutwfc          = 100
   occupations      = 'smearing'
   degauss          = 0.0007349862
   smearing         = 'gaussian'
   nspin            = 1
   ntyp             = 1
   nat              = 8
   ibrav            = 0
/
&ELECTRONS
   conv_thr         = 1e-10
/
&IONS
/
&CELL
/

ATOMIC_SPECIES
I 126.90447 I_ONCV_PBE-1.2.upf

K_POINTS automatic
12 22 10  1 1 1

CELL_PARAMETERS angstrom
8.46109024946127 0.00000000000000 0.00000000000000
0.00000000000000 4.49266894126293 0.00000000000000
0.00000000000000 0.00000000000000 10.04617407387495

ATOMIC_POSITIONS angstrom
I 2.1152725624 1.6357807615 8.8262671561 
I 2.1152725624 0.6105537091 3.8031801191 
I 2.1152725624 3.8821152321 6.2429939547 
I 2.1152725624 2.8568881797 1.2199069178 
I 6.3458176871 3.8821152321 8.8262671561 
I 6.3458176871 2.8568881797 3.8031801191 
I 6.3458176871 1.6357807615 6.2429939547 
I 6.3458176871 0.6105537091 1.2199069178 

