&CONTROL
   calculation      = 'scf'
   verbosity        = 'high'
   prefix           = 'I-98'
   disk_io          = 'nowf'
   pseudo_dir       = './'
/
&SYSTEM
   ecutwfc          = 100
   occupations      = 'smearing'
   degauss          = 0.0007349862
   smearing         = 'gaussian'
   nspin            = 1
   ntyp             = 1
   nat              = 8
   ibrav            = 0
/
&ELECTRONS
   conv_thr         = 1e-10
/
&IONS
/
&CELL
/

ATOMIC_SPECIES
I 126.90447 I_ONCV_PBE-1.2.upf

K_POINTS automatic
12 22 10  1 1 1

CELL_PARAMETERS angstrom
8.51944444001287 0.00000000000000 0.00000000000000
0.00000000000000 4.52365384412463 0.00000000000000
0.00000000000000 0.00000000000000 10.11546022246068

ATOMIC_POSITIONS angstrom
I 2.1298611100 1.6470623646 8.8871398876 
I 2.1298611100 0.6147645574 3.8294097764 
I 2.1298611100 3.9088892867 6.2860504460 
I 2.1298611100 2.8765914795 1.2283203348 
I 6.3895833300 3.9088892867 8.8871398876 
I 6.3895833300 2.8765914795 3.8294097764 
I 6.3895833300 1.6470623646 6.2860504460 
I 6.3895833300 0.6147645574 1.2283203348 

