&CONTROL
   calculation      = 'scf'
   verbosity        = 'high'
   prefix           = 'Si-100'
   disk_io          = 'nowf'
   pseudo_dir       = './'
/
&SYSTEM
   ecutwfc          = 25
   occupations      = 'fixed'
   nspin            = 1
   ntyp             = 1
   nat              = 1024
   ibrav            = 0
/
&ELECTRONS
   conv_thr         = 1e-8
   diago_thr_init   = 1e-5
/
&IONS
/
&CELL
/

ATOMIC_SPECIES
Si 28.085 Si_ONCV_PBE-1.2.upf

K_POINTS automatic
1 1 1  0 0 0

CELL_PARAMETERS bohr
  -40.7999999999999972    0.0000000000000000   40.7999999999999972
    0.0000000000000000   40.7999999999999972   40.7999999999999972
  -40.7999999999999972   40.7999999999999972    0.0000000000000000

ATOMIC_POSITIONS crystal
 Si   0.1093750000000000  0.1093750000000000  0.1093750000000000
 Si   0.2343750000000000  0.1093750000000000  0.1093750000000000
 Si   0.3593750000000000  0.1093750000000000  0.1093750000000000
 Si   0.4843750000000000  0.1093750000000000  0.1093750000000000
 Si   0.6093750000000000  0.1093750000000000  0.1093750000000000
 Si   0.7343750000000000  0.1093750000000000  0.1093750000000000
 Si   0.8593750000000000  0.1093750000000000  0.1093750000000000
 Si   0.9843750000000000  0.1093750000000000  0.1093750000000000
 Si   0.1093750000000000  0.2343750000000000  0.1093750000000000
 Si   0.2343750000000000  0.2343750000000000  0.1093750000000000
 Si   0.3593750000000000  0.2343750000000000  0.1093750000000000
 Si   0.4843750000000000  0.2343750000000000  0.1093750000000000
 Si   0.6093750000000000  0.2343750000000000  0.1093750000000000
 Si   0.7343750000000000  0.2343750000000000  0.1093750000000000
 Si   0.8593750000000000  0.2343750000000000  0.1093750000000000
 Si   0.9843750000000000  0.2343750000000000  0.1093750000000000
 Si   0.1093750000000000  0.3593750000000000  0.1093750000000000
 Si   0.2343750000000000  0.3593750000000000  0.1093750000000000
 Si   0.3593750000000000  0.3593750000000000  0.1093750000000000
 Si   0.4843750000000000  0.3593750000000000  0.1093750000000000
 Si   0.6093750000000000  0.3593750000000000  0.1093750000000000
 Si   0.7343750000000000  0.3593750000000000  0.1093750000000000
 Si   0.8593750000000000  0.3593750000000000  0.1093750000000000
 Si   0.9843750000000000  0.3593750000000000  0.1093750000000000
 Si   0.1093750000000000  0.4843750000000000  0.1093750000000000
 Si   0.2343750000000000  0.4843750000000000  0.1093750000000000
 Si   0.3593750000000000  0.4843750000000000  0.1093750000000000
 Si   0.4843750000000000  0.4843750000000000  0.1093750000000000
 Si   0.6093750000000000  0.4843750000000000  0.1093750000000000
 Si   0.7343750000000000  0.4843750000000000  0.1093750000000000
 Si   0.8593750000000000  0.4843750000000000  0.1093750000000000
 Si   0.9843750000000000  0.4843750000000000  0.1093750000000000
 Si   0.1093750000000000  0.6093750000000000  0.1093750000000000
 Si   0.2343750000000000  0.6093750000000000  0.1093750000000000
 Si   0.3593750000000000  0.6093750000000000  0.1093750000000000
 Si   0.4843750000000000  0.6093750000000000  0.1093750000000000
 Si   0.6093750000000000  0.6093750000000000  0.1093750000000000
 Si   0.7343750000000000  0.6093750000000000  0.1093750000000000
 Si   0.8593750000000000  0.6093750000000000  0.1093750000000000
 Si   0.9843750000000000  0.6093750000000000  0.1093750000000000
 Si   0.1093750000000000  0.7343750000000000  0.1093750000000000
 Si   0.2343750000000000  0.7343750000000000  0.1093750000000000
 Si   0.3593750000000000  0.7343750000000000  0.1093750000000000
 Si   0.4843750000000000  0.7343750000000000  0.1093750000000000
 Si   0.6093750000000000  0.7343750000000000  0.1093750000000000
 Si   0.7343750000000000  0.7343750000000000  0.1093750000000000
 Si   0.8593750000000000  0.7343750000000000  0.1093750000000000
 Si   0.9843750000000000  0.7343750000000000  0.1093750000000000
 Si   0.1093750000000000  0.8593750000000000  0.1093750000000000
 Si   0.2343750000000000  0.8593750000000000  0.1093750000000000
 Si   0.3593750000000000  0.8593750000000000  0.1093750000000000
 Si   0.4843750000000000  0.8593750000000000  0.1093750000000000
 Si   0.6093750000000000  0.8593750000000000  0.1093750000000000
 Si   0.7343750000000000  0.8593750000000000  0.1093750000000000
 Si   0.8593750000000000  0.8593750000000000  0.1093750000000000
 Si   0.9843750000000000  0.8593750000000000  0.1093750000000000
 Si   0.1093750000000000  0.9843750000000000  0.1093750000000000
 Si   0.2343750000000000  0.9843750000000000  0.1093750000000000
 Si   0.3593750000000000  0.9843750000000000  0.1093750000000000
 Si   0.4843750000000000  0.9843750000000000  0.1093750000000000
 Si   0.6093750000000000  0.9843750000000000  0.1093750000000000
 Si   0.7343750000000000  0.9843750000000000  0.1093750000000000
 Si   0.8593750000000000  0.9843750000000000  0.1093750000000000
 Si   0.9843750000000000  0.9843750000000000  0.1093750000000000
 Si   0.1093750000000000  0.1093750000000000  0.2343750000000000
 Si   0.2343750000000000  0.1093750000000000  0.2343750000000000
 Si   0.3593750000000000  0.1093750000000000  0.2343750000000000
 Si   0.4843750000000000  0.1093750000000000  0.2343750000000000
 Si   0.6093750000000000  0.1093750000000000  0.2343750000000000
 Si   0.7343750000000000  0.1093750000000000  0.2343750000000000
 Si   0.8593750000000000  0.1093750000000000  0.2343750000000000
 Si   0.9843750000000000  0.1093750000000000  0.2343750000000000
 Si   0.1093750000000000  0.2343750000000000  0.2343750000000000
 Si   0.2343750000000000  0.2343750000000000  0.2343750000000000
 Si   0.3593750000000000  0.2343750000000000  0.2343750000000000
 Si   0.4843750000000000  0.2343750000000000  0.2343750000000000
 Si   0.6093750000000000  0.2343750000000000  0.2343750000000000
 Si   0.7343750000000000  0.2343750000000000  0.2343750000000000
 Si   0.8593750000000000  0.2343750000000000  0.2343750000000000
 Si   0.9843750000000000  0.2343750000000000  0.2343750000000000
 Si   0.1093750000000000  0.3593750000000000  0.2343750000000000
 Si   0.2343750000000000  0.3593750000000000  0.2343750000000000
 Si   0.3593750000000000  0.3593750000000000  0.2343750000000000
 Si   0.4843750000000000  0.3593750000000000  0.2343750000000000
 Si   0.6093750000000000  0.3593750000000000  0.2343750000000000
 Si   0.7343750000000000  0.3593750000000000  0.2343750000000000
 Si   0.8593750000000000  0.3593750000000000  0.2343750000000000
 Si   0.9843750000000000  0.3593750000000000  0.2343750000000000
 Si   0.1093750000000000  0.4843750000000000  0.2343750000000000
 Si   0.2343750000000000  0.4843750000000000  0.2343750000000000
 Si   0.3593750000000000  0.4843750000000000  0.2343750000000000
 Si   0.4843750000000000  0.4843750000000000  0.2343750000000000
 Si   0.6093750000000000  0.4843750000000000  0.2343750000000000
 Si   0.7343750000000000  0.4843750000000000  0.2343750000000000
 Si   0.8593750000000000  0.4843750000000000  0.2343750000000000
 Si   0.9843750000000000  0.4843750000000000  0.2343750000000000
 Si   0.1093750000000000  0.6093750000000000  0.2343750000000000
 Si   0.2343750000000000  0.6093750000000000  0.2343750000000000
 Si   0.3593750000000000  0.6093750000000000  0.2343750000000000
 Si   0.4843750000000000  0.6093750000000000  0.2343750000000000
 Si   0.6093750000000000  0.6093750000000000  0.2343750000000000
 Si   0.7343750000000000  0.6093750000000000  0.2343750000000000
 Si   0.8593750000000000  0.6093750000000000  0.2343750000000000
 Si   0.9843750000000000  0.6093750000000000  0.2343750000000000
 Si   0.1093750000000000  0.7343750000000000  0.2343750000000000
 Si   0.2343750000000000  0.7343750000000000  0.2343750000000000
 Si   0.3593750000000000  0.7343750000000000  0.2343750000000000
 Si   0.4843750000000000  0.7343750000000000  0.2343750000000000
 Si   0.6093750000000000  0.7343750000000000  0.2343750000000000
 Si   0.7343750000000000  0.7343750000000000  0.2343750000000000
 Si   0.8593750000000000  0.7343750000000000  0.2343750000000000
 Si   0.9843750000000000  0.7343750000000000  0.2343750000000000
 Si   0.1093750000000000  0.8593750000000000  0.2343750000000000
 Si   0.2343750000000000  0.8593750000000000  0.2343750000000000
 Si   0.3593750000000000  0.8593750000000000  0.2343750000000000
 Si   0.4843750000000000  0.8593750000000000  0.2343750000000000
 Si   0.6093750000000000  0.8593750000000000  0.2343750000000000
 Si   0.7343750000000000  0.8593750000000000  0.2343750000000000
 Si   0.8593750000000000  0.8593750000000000  0.2343750000000000
 Si   0.9843750000000000  0.8593750000000000  0.2343750000000000
 Si   0.1093750000000000  0.9843750000000000  0.2343750000000000
 Si   0.2343750000000000  0.9843750000000000  0.2343750000000000
 Si   0.3593750000000000  0.9843750000000000  0.2343750000000000
 Si   0.4843750000000000  0.9843750000000000  0.2343750000000000
 Si   0.6093750000000000  0.9843750000000000  0.2343750000000000
 Si   0.7343750000000000  0.9843750000000000  0.2343750000000000
 Si   0.8593750000000000  0.9843750000000000  0.2343750000000000
 Si   0.9843750000000000  0.9843750000000000  0.2343750000000000
 Si   0.1093750000000000  0.1093750000000000  0.3593750000000000
 Si   0.2343750000000000  0.1093750000000000  0.3593750000000000
 Si   0.3593750000000000  0.1093750000000000  0.3593750000000000
 Si   0.4843750000000000  0.1093750000000000  0.3593750000000000
 Si   0.6093750000000000  0.1093750000000000  0.3593750000000000
 Si   0.7343750000000000  0.1093750000000000  0.3593750000000000
 Si   0.8593750000000000  0.1093750000000000  0.3593750000000000
 Si   0.9843750000000000  0.1093750000000000  0.3593750000000000
 Si   0.1093750000000000  0.2343750000000000  0.3593750000000000
 Si   0.2343750000000000  0.2343750000000000  0.3593750000000000
 Si   0.3593750000000000  0.2343750000000000  0.3593750000000000
 Si   0.4843750000000000  0.2343750000000000  0.3593750000000000
 Si   0.6093750000000000  0.2343750000000000  0.3593750000000000
 Si   0.7343750000000000  0.2343750000000000  0.3593750000000000
 Si   0.8593750000000000  0.2343750000000000  0.3593750000000000
 Si   0.9843750000000000  0.2343750000000000  0.3593750000000000
 Si   0.1093750000000000  0.3593750000000000  0.3593750000000000
 Si   0.2343750000000000  0.3593750000000000  0.3593750000000000
 Si   0.3593750000000000  0.3593750000000000  0.3593750000000000
 Si   0.4843750000000000  0.3593750000000000  0.3593750000000000
 Si   0.6093750000000000  0.3593750000000000  0.3593750000000000
 Si   0.7343750000000000  0.3593750000000000  0.3593750000000000
 Si   0.8593750000000000  0.3593750000000000  0.3593750000000000
 Si   0.9843750000000000  0.3593750000000000  0.3593750000000000
 Si   0.1093750000000000  0.4843750000000000  0.3593750000000000
 Si   0.2343750000000000  0.4843750000000000  0.3593750000000000
 Si   0.3593750000000000  0.4843750000000000  0.3593750000000000
 Si   0.4843750000000000  0.4843750000000000  0.3593750000000000
 Si   0.6093750000000000  0.4843750000000000  0.3593750000000000
 Si   0.7343750000000000  0.4843750000000000  0.3593750000000000
 Si   0.8593750000000000  0.4843750000000000  0.3593750000000000
 Si   0.9843750000000000  0.4843750000000000  0.3593750000000000
 Si   0.1093750000000000  0.6093750000000000  0.3593750000000000
 Si   0.2343750000000000  0.6093750000000000  0.3593750000000000
 Si   0.3593750000000000  0.6093750000000000  0.3593750000000000
 Si   0.4843750000000000  0.6093750000000000  0.3593750000000000
 Si   0.6093750000000000  0.6093750000000000  0.3593750000000000
 Si   0.7343750000000000  0.6093750000000000  0.3593750000000000
 Si   0.8593750000000000  0.6093750000000000  0.3593750000000000
 Si   0.9843750000000000  0.6093750000000000  0.3593750000000000
 Si   0.1093750000000000  0.7343750000000000  0.3593750000000000
 Si   0.2343750000000000  0.7343750000000000  0.3593750000000000
 Si   0.3593750000000000  0.7343750000000000  0.3593750000000000
 Si   0.4843750000000000  0.7343750000000000  0.3593750000000000
 Si   0.6093750000000000  0.7343750000000000  0.3593750000000000
 Si   0.7343750000000000  0.7343750000000000  0.3593750000000000
 Si   0.8593750000000000  0.7343750000000000  0.3593750000000000
 Si   0.9843750000000000  0.7343750000000000  0.3593750000000000
 Si   0.1093750000000000  0.8593750000000000  0.3593750000000000
 Si   0.2343750000000000  0.8593750000000000  0.3593750000000000
 Si   0.3593750000000000  0.8593750000000000  0.3593750000000000
 Si   0.4843750000000000  0.8593750000000000  0.3593750000000000
 Si   0.6093750000000000  0.8593750000000000  0.3593750000000000
 Si   0.7343750000000000  0.8593750000000000  0.3593750000000000
 Si   0.8593750000000000  0.8593750000000000  0.3593750000000000
 Si   0.9843750000000000  0.8593750000000000  0.3593750000000000
 Si   0.1093750000000000  0.9843750000000000  0.3593750000000000
 Si   0.2343750000000000  0.9843750000000000  0.3593750000000000
 Si   0.3593750000000000  0.9843750000000000  0.3593750000000000
 Si   0.4843750000000000  0.9843750000000000  0.3593750000000000
 Si   0.6093750000000000  0.9843750000000000  0.3593750000000000
 Si   0.7343750000000000  0.9843750000000000  0.3593750000000000
 Si   0.8593750000000000  0.9843750000000000  0.3593750000000000
 Si   0.9843750000000000  0.9843750000000000  0.3593750000000000
 Si   0.1093750000000000  0.1093750000000000  0.4843750000000000
 Si   0.2343750000000000  0.1093750000000000  0.4843750000000000
 Si   0.3593750000000000  0.1093750000000000  0.4843750000000000
 Si   0.4843750000000000  0.1093750000000000  0.4843750000000000
 Si   0.6093750000000000  0.1093750000000000  0.4843750000000000
 Si   0.7343750000000000  0.1093750000000000  0.4843750000000000
 Si   0.8593750000000000  0.1093750000000000  0.4843750000000000
 Si   0.9843750000000000  0.1093750000000000  0.4843750000000000
 Si   0.1093750000000000  0.2343750000000000  0.4843750000000000
 Si   0.2343750000000000  0.2343750000000000  0.4843750000000000
 Si   0.3593750000000000  0.2343750000000000  0.4843750000000000
 Si   0.4843750000000000  0.2343750000000000  0.4843750000000000
 Si   0.6093750000000000  0.2343750000000000  0.4843750000000000
 Si   0.7343750000000000  0.2343750000000000  0.4843750000000000
 Si   0.8593750000000000  0.2343750000000000  0.4843750000000000
 Si   0.9843750000000000  0.2343750000000000  0.4843750000000000
 Si   0.1093750000000000  0.3593750000000000  0.4843750000000000
 Si   0.2343750000000000  0.3593750000000000  0.4843750000000000
 Si   0.3593750000000000  0.3593750000000000  0.4843750000000000
 Si   0.4843750000000000  0.3593750000000000  0.4843750000000000
 Si   0.6093750000000000  0.3593750000000000  0.4843750000000000
 Si   0.7343750000000000  0.3593750000000000  0.4843750000000000
 Si   0.8593750000000000  0.3593750000000000  0.4843750000000000
 Si   0.9843750000000000  0.3593750000000000  0.4843750000000000
 Si   0.1093750000000000  0.4843750000000000  0.4843750000000000
 Si   0.2343750000000000  0.4843750000000000  0.4843750000000000
 Si   0.3593750000000000  0.4843750000000000  0.4843750000000000
 Si   0.4843750000000000  0.4843750000000000  0.4843750000000000
 Si   0.6093750000000000  0.4843750000000000  0.4843750000000000
 Si   0.7343750000000000  0.4843750000000000  0.4843750000000000
 Si   0.8593750000000000  0.4843750000000000  0.4843750000000000
 Si   0.9843750000000000  0.4843750000000000  0.4843750000000000
 Si   0.1093750000000000  0.6093750000000000  0.4843750000000000
 Si   0.2343750000000000  0.6093750000000000  0.4843750000000000
 Si   0.3593750000000000  0.6093750000000000  0.4843750000000000
 Si   0.4843750000000000  0.6093750000000000  0.4843750000000000
 Si   0.6093750000000000  0.6093750000000000  0.4843750000000000
 Si   0.7343750000000000  0.6093750000000000  0.4843750000000000
 Si   0.8593750000000000  0.6093750000000000  0.4843750000000000
 Si   0.9843750000000000  0.6093750000000000  0.4843750000000000
 Si   0.1093750000000000  0.7343750000000000  0.4843750000000000
 Si   0.2343750000000000  0.7343750000000000  0.4843750000000000
 Si   0.3593750000000000  0.7343750000000000  0.4843750000000000
 Si   0.4843750000000000  0.7343750000000000  0.4843750000000000
 Si   0.6093750000000000  0.7343750000000000  0.4843750000000000
 Si   0.7343750000000000  0.7343750000000000  0.4843750000000000
 Si   0.8593750000000000  0.7343750000000000  0.4843750000000000
 Si   0.9843750000000000  0.7343750000000000  0.4843750000000000
 Si   0.1093750000000000  0.8593750000000000  0.4843750000000000
 Si   0.2343750000000000  0.8593750000000000  0.4843750000000000
 Si   0.3593750000000000  0.8593750000000000  0.4843750000000000
 Si   0.4843750000000000  0.8593750000000000  0.4843750000000000
 Si   0.6093750000000000  0.8593750000000000  0.4843750000000000
 Si   0.7343750000000000  0.8593750000000000  0.4843750000000000
 Si   0.8593750000000000  0.8593750000000000  0.4843750000000000
 Si   0.9843750000000000  0.8593750000000000  0.4843750000000000
 Si   0.1093750000000000  0.9843750000000000  0.4843750000000000
 Si   0.2343750000000000  0.9843750000000000  0.4843750000000000
 Si   0.3593750000000000  0.9843750000000000  0.4843750000000000
 Si   0.4843750000000000  0.9843750000000000  0.4843750000000000
 Si   0.6093750000000000  0.9843750000000000  0.4843750000000000
 Si   0.7343750000000000  0.9843750000000000  0.4843750000000000
 Si   0.8593750000000000  0.9843750000000000  0.4843750000000000
 Si   0.9843750000000000  0.9843750000000000  0.4843750000000000
 Si   0.1093750000000000  0.1093750000000000  0.6093750000000000
 Si   0.2343750000000000  0.1093750000000000  0.6093750000000000
 Si   0.3593750000000000  0.1093750000000000  0.6093750000000000
 Si   0.4843750000000000  0.1093750000000000  0.6093750000000000
 Si   0.6093750000000000  0.1093750000000000  0.6093750000000000
 Si   0.7343750000000000  0.1093750000000000  0.6093750000000000
 Si   0.8593750000000000  0.1093750000000000  0.6093750000000000
 Si   0.9843750000000000  0.1093750000000000  0.6093750000000000
 Si   0.1093750000000000  0.2343750000000000  0.6093750000000000
 Si   0.2343750000000000  0.2343750000000000  0.6093750000000000
 Si   0.3593750000000000  0.2343750000000000  0.6093750000000000
 Si   0.4843750000000000  0.2343750000000000  0.6093750000000000
 Si   0.6093750000000000  0.2343750000000000  0.6093750000000000
 Si   0.7343750000000000  0.2343750000000000  0.6093750000000000
 Si   0.8593750000000000  0.2343750000000000  0.6093750000000000
 Si   0.9843750000000000  0.2343750000000000  0.6093750000000000
 Si   0.1093750000000000  0.3593750000000000  0.6093750000000000
 Si   0.2343750000000000  0.3593750000000000  0.6093750000000000
 Si   0.3593750000000000  0.3593750000000000  0.6093750000000000
 Si   0.4843750000000000  0.3593750000000000  0.6093750000000000
 Si   0.6093750000000000  0.3593750000000000  0.6093750000000000
 Si   0.7343750000000000  0.3593750000000000  0.6093750000000000
 Si   0.8593750000000000  0.3593750000000000  0.6093750000000000
 Si   0.9843750000000000  0.3593750000000000  0.6093750000000000
 Si   0.1093750000000000  0.4843750000000000  0.6093750000000000
 Si   0.2343750000000000  0.4843750000000000  0.6093750000000000
 Si   0.3593750000000000  0.4843750000000000  0.6093750000000000
 Si   0.4843750000000000  0.4843750000000000  0.6093750000000000
 Si   0.6093750000000000  0.4843750000000000  0.6093750000000000
 Si   0.7343750000000000  0.4843750000000000  0.6093750000000000
 Si   0.8593750000000000  0.4843750000000000  0.6093750000000000
 Si   0.9843750000000000  0.4843750000000000  0.6093750000000000
 Si   0.1093750000000000  0.6093750000000000  0.6093750000000000
 Si   0.2343750000000000  0.6093750000000000  0.6093750000000000
 Si   0.3593750000000000  0.6093750000000000  0.6093750000000000
 Si   0.4843750000000000  0.6093750000000000  0.6093750000000000
 Si   0.6093750000000000  0.6093750000000000  0.6093750000000000
 Si   0.7343750000000000  0.6093750000000000  0.6093750000000000
 Si   0.8593750000000000  0.6093750000000000  0.6093750000000000
 Si   0.9843750000000000  0.6093750000000000  0.6093750000000000
 Si   0.1093750000000000  0.7343750000000000  0.6093750000000000
 Si   0.2343750000000000  0.7343750000000000  0.6093750000000000
 Si   0.3593750000000000  0.7343750000000000  0.6093750000000000
 Si   0.4843750000000000  0.7343750000000000  0.6093750000000000
 Si   0.6093750000000000  0.7343750000000000  0.6093750000000000
 Si   0.7343750000000000  0.7343750000000000  0.6093750000000000
 Si   0.8593750000000000  0.7343750000000000  0.6093750000000000
 Si   0.9843750000000000  0.7343750000000000  0.6093750000000000
 Si   0.1093750000000000  0.8593750000000000  0.6093750000000000
 Si   0.2343750000000000  0.8593750000000000  0.6093750000000000
 Si   0.3593750000000000  0.8593750000000000  0.6093750000000000
 Si   0.4843750000000000  0.8593750000000000  0.6093750000000000
 Si   0.6093750000000000  0.8593750000000000  0.6093750000000000
 Si   0.7343750000000000  0.8593750000000000  0.6093750000000000
 Si   0.8593750000000000  0.8593750000000000  0.6093750000000000
 Si   0.9843750000000000  0.8593750000000000  0.6093750000000000
 Si   0.1093750000000000  0.9843750000000000  0.6093750000000000
 Si   0.2343750000000000  0.9843750000000000  0.6093750000000000
 Si   0.3593750000000000  0.9843750000000000  0.6093750000000000
 Si   0.4843750000000000  0.9843750000000000  0.6093750000000000
 Si   0.6093750000000000  0.9843750000000000  0.6093750000000000
 Si   0.7343750000000000  0.9843750000000000  0.6093750000000000
 Si   0.8593750000000000  0.9843750000000000  0.6093750000000000
 Si   0.9843750000000000  0.9843750000000000  0.6093750000000000
 Si   0.1093750000000000  0.1093750000000000  0.7343750000000000
 Si   0.2343750000000000  0.1093750000000000  0.7343750000000000
 Si   0.3593750000000000  0.1093750000000000  0.7343750000000000
 Si   0.4843750000000000  0.1093750000000000  0.7343750000000000
 Si   0.6093750000000000  0.1093750000000000  0.7343750000000000
 Si   0.7343750000000000  0.1093750000000000  0.7343750000000000
 Si   0.8593750000000000  0.1093750000000000  0.7343750000000000
 Si   0.9843750000000000  0.1093750000000000  0.7343750000000000
 Si   0.1093750000000000  0.2343750000000000  0.7343750000000000
 Si   0.2343750000000000  0.2343750000000000  0.7343750000000000
 Si   0.3593750000000000  0.2343750000000000  0.7343750000000000
 Si   0.4843750000000000  0.2343750000000000  0.7343750000000000
 Si   0.6093750000000000  0.2343750000000000  0.7343750000000000
 Si   0.7343750000000000  0.2343750000000000  0.7343750000000000
 Si   0.8593750000000000  0.2343750000000000  0.7343750000000000
 Si   0.9843750000000000  0.2343750000000000  0.7343750000000000
 Si   0.1093750000000000  0.3593750000000000  0.7343750000000000
 Si   0.2343750000000000  0.3593750000000000  0.7343750000000000
 Si   0.3593750000000000  0.3593750000000000  0.7343750000000000
 Si   0.4843750000000000  0.3593750000000000  0.7343750000000000
 Si   0.6093750000000000  0.3593750000000000  0.7343750000000000
 Si   0.7343750000000000  0.3593750000000000  0.7343750000000000
 Si   0.8593750000000000  0.3593750000000000  0.7343750000000000
 Si   0.9843750000000000  0.3593750000000000  0.7343750000000000
 Si   0.1093750000000000  0.4843750000000000  0.7343750000000000
 Si   0.2343750000000000  0.4843750000000000  0.7343750000000000
 Si   0.3593750000000000  0.4843750000000000  0.7343750000000000
 Si   0.4843750000000000  0.4843750000000000  0.7343750000000000
 Si   0.6093750000000000  0.4843750000000000  0.7343750000000000
 Si   0.7343750000000000  0.4843750000000000  0.7343750000000000
 Si   0.8593750000000000  0.4843750000000000  0.7343750000000000
 Si   0.9843750000000000  0.4843750000000000  0.7343750000000000
 Si   0.1093750000000000  0.6093750000000000  0.7343750000000000
 Si   0.2343750000000000  0.6093750000000000  0.7343750000000000
 Si   0.3593750000000000  0.6093750000000000  0.7343750000000000
 Si   0.4843750000000000  0.6093750000000000  0.7343750000000000
 Si   0.6093750000000000  0.6093750000000000  0.7343750000000000
 Si   0.7343750000000000  0.6093750000000000  0.7343750000000000
 Si   0.8593750000000000  0.6093750000000000  0.7343750000000000
 Si   0.9843750000000000  0.6093750000000000  0.7343750000000000
 Si   0.1093750000000000  0.7343750000000000  0.7343750000000000
 Si   0.2343750000000000  0.7343750000000000  0.7343750000000000
 Si   0.3593750000000000  0.7343750000000000  0.7343750000000000
 Si   0.4843750000000000  0.7343750000000000  0.7343750000000000
 Si   0.6093750000000000  0.7343750000000000  0.7343750000000000
 Si   0.7343750000000000  0.7343750000000000  0.7343750000000000
 Si   0.8593750000000000  0.7343750000000000  0.7343750000000000
 Si   0.9843750000000000  0.7343750000000000  0.7343750000000000
 Si   0.1093750000000000  0.8593750000000000  0.7343750000000000
 Si   0.2343750000000000  0.8593750000000000  0.7343750000000000
 Si   0.3593750000000000  0.8593750000000000  0.7343750000000000
 Si   0.4843750000000000  0.8593750000000000  0.7343750000000000
 Si   0.6093750000000000  0.8593750000000000  0.7343750000000000
 Si   0.7343750000000000  0.8593750000000000  0.7343750000000000
 Si   0.8593750000000000  0.8593750000000000  0.7343750000000000
 Si   0.9843750000000000  0.8593750000000000  0.7343750000000000
 Si   0.1093750000000000  0.9843750000000000  0.7343750000000000
 Si   0.2343750000000000  0.9843750000000000  0.7343750000000000
 Si   0.3593750000000000  0.9843750000000000  0.7343750000000000
 Si   0.4843750000000000  0.9843750000000000  0.7343750000000000
 Si   0.6093750000000000  0.9843750000000000  0.7343750000000000
 Si   0.7343750000000000  0.9843750000000000  0.7343750000000000
 Si   0.8593750000000000  0.9843750000000000  0.7343750000000000
 Si   0.9843750000000000  0.9843750000000000  0.7343750000000000
 Si   0.1093750000000000  0.1093750000000000  0.8593750000000000
 Si   0.2343750000000000  0.1093750000000000  0.8593750000000000
 Si   0.3593750000000000  0.1093750000000000  0.8593750000000000
 Si   0.4843750000000000  0.1093750000000000  0.8593750000000000
 Si   0.6093750000000000  0.1093750000000000  0.8593750000000000
 Si   0.7343750000000000  0.1093750000000000  0.8593750000000000
 Si   0.8593750000000000  0.1093750000000000  0.8593750000000000
 Si   0.9843750000000000  0.1093750000000000  0.8593750000000000
 Si   0.1093750000000000  0.2343750000000000  0.8593750000000000
 Si   0.2343750000000000  0.2343750000000000  0.8593750000000000
 Si   0.3593750000000000  0.2343750000000000  0.8593750000000000
 Si   0.4843750000000000  0.2343750000000000  0.8593750000000000
 Si   0.6093750000000000  0.2343750000000000  0.8593750000000000
 Si   0.7343750000000000  0.2343750000000000  0.8593750000000000
 Si   0.8593750000000000  0.2343750000000000  0.8593750000000000
 Si   0.9843750000000000  0.2343750000000000  0.8593750000000000
 Si   0.1093750000000000  0.3593750000000000  0.8593750000000000
 Si   0.2343750000000000  0.3593750000000000  0.8593750000000000
 Si   0.3593750000000000  0.3593750000000000  0.8593750000000000
 Si   0.4843750000000000  0.3593750000000000  0.8593750000000000
 Si   0.6093750000000000  0.3593750000000000  0.8593750000000000
 Si   0.7343750000000000  0.3593750000000000  0.8593750000000000
 Si   0.8593750000000000  0.3593750000000000  0.8593750000000000
 Si   0.9843750000000000  0.3593750000000000  0.8593750000000000
 Si   0.1093750000000000  0.4843750000000000  0.8593750000000000
 Si   0.2343750000000000  0.4843750000000000  0.8593750000000000
 Si   0.3593750000000000  0.4843750000000000  0.8593750000000000
 Si   0.4843750000000000  0.4843750000000000  0.8593750000000000
 Si   0.6093750000000000  0.4843750000000000  0.8593750000000000
 Si   0.7343750000000000  0.4843750000000000  0.8593750000000000
 Si   0.8593750000000000  0.4843750000000000  0.8593750000000000
 Si   0.9843750000000000  0.4843750000000000  0.8593750000000000
 Si   0.1093750000000000  0.6093750000000000  0.8593750000000000
 Si   0.2343750000000000  0.6093750000000000  0.8593750000000000
 Si   0.3593750000000000  0.6093750000000000  0.8593750000000000
 Si   0.4843750000000000  0.6093750000000000  0.8593750000000000
 Si   0.6093750000000000  0.6093750000000000  0.8593750000000000
 Si   0.7343750000000000  0.6093750000000000  0.8593750000000000
 Si   0.8593750000000000  0.6093750000000000  0.8593750000000000
 Si   0.9843750000000000  0.6093750000000000  0.8593750000000000
 Si   0.1093750000000000  0.7343750000000000  0.8593750000000000
 Si   0.2343750000000000  0.7343750000000000  0.8593750000000000
 Si   0.3593750000000000  0.7343750000000000  0.8593750000000000
 Si   0.4843750000000000  0.7343750000000000  0.8593750000000000
 Si   0.6093750000000000  0.7343750000000000  0.8593750000000000
 Si   0.7343750000000000  0.7343750000000000  0.8593750000000000
 Si   0.8593750000000000  0.7343750000000000  0.8593750000000000
 Si   0.9843750000000000  0.7343750000000000  0.8593750000000000
 Si   0.1093750000000000  0.8593750000000000  0.8593750000000000
 Si   0.2343750000000000  0.8593750000000000  0.8593750000000000
 Si   0.3593750000000000  0.8593750000000000  0.8593750000000000
 Si   0.4843750000000000  0.8593750000000000  0.8593750000000000
 Si   0.6093750000000000  0.8593750000000000  0.8593750000000000
 Si   0.7343750000000000  0.8593750000000000  0.8593750000000000
 Si   0.8593750000000000  0.8593750000000000  0.8593750000000000
 Si   0.9843750000000000  0.8593750000000000  0.8593750000000000
 Si   0.1093750000000000  0.9843750000000000  0.8593750000000000
 Si   0.2343750000000000  0.9843750000000000  0.8593750000000000
 Si   0.3593750000000000  0.9843750000000000  0.8593750000000000
 Si   0.4843750000000000  0.9843750000000000  0.8593750000000000
 Si   0.6093750000000000  0.9843750000000000  0.8593750000000000
 Si   0.7343750000000000  0.9843750000000000  0.8593750000000000
 Si   0.8593750000000000  0.9843750000000000  0.8593750000000000
 Si   0.9843750000000000  0.9843750000000000  0.8593750000000000
 Si   0.1093750000000000  0.1093750000000000  0.9843750000000000
 Si   0.2343750000000000  0.1093750000000000  0.9843750000000000