&CONTROL
   calculation      = 'scf'
   verbosity        = 'high'
   prefix           = 'si5x5x5'
   pseudo_dir       = './'
   disk_io          = 'none'
/
&SYSTEM
   ibrav            = 2
   celldm(1)        = 51.0
   ecutwfc          = 25
   nspin            = 1
   ntyp             = 1
   nat              = 250
/
&ELECTRONS
   conv_thr         = 1e-6
   diago_full_acc   = .true.
/
&IONS
/
&CELL
/

ATOMIC_SPECIES
Si 28.085 Si_ONCV_PBE-1.2.upf

K_POINTS
1
0. 0. 0. 1.


ATOMIC_POSITIONS angstrom
Si    0.0000000000    0.0000000000    0.0000000000
Si    1.3494018820    1.3494018820    1.3494018820
Si   -2.6988037640    2.6988037640    0.0000000000
Si   -1.3494018820    4.0482056460    1.3494018820
Si   -5.3976075280    5.3976075280    0.0000000000
Si   -4.0482056460    6.7470094100    1.3494018820
Si   -8.0964112920    8.0964112920    0.0000000000
Si   -6.7470094100    9.4458131740    1.3494018820
Si  -10.7952150560   10.7952150560    0.0000000000
Si   -9.4458131740   12.1446169380    1.3494018820
Si    0.0000000000    2.6988037640    2.6988037640
Si    1.3494018820    4.0482056460    4.0482056460
Si   -2.6988037640    5.3976075280    2.6988037640
Si   -1.3494018820    6.7470094100    4.0482056460
Si   -5.3976075280    8.0964112920    2.6988037640
Si   -4.0482056460    9.4458131740    4.0482056460
Si   -8.0964112920   10.7952150560    2.6988037640
Si   -6.7470094100   12.1446169380    4.0482056460
Si  -10.7952150560   13.4940188200    2.6988037640
Si   -9.4458131740   14.8434207020    4.0482056460
Si    0.0000000000    5.3976075280    5.3976075280
Si    1.3494018820    6.7470094100    6.7470094100
Si   -2.6988037640    8.0964112920    5.3976075280
Si   -1.3494018820    9.4458131740    6.7470094100
Si   -5.3976075280   10.7952150560    5.3976075280
Si   -4.0482056460   12.1446169380    6.7470094100
Si   -8.0964112920   13.4940188200    5.3976075280
Si   -6.7470094100   14.8434207020    6.7470094100
Si  -10.7952150560   16.1928225840    5.3976075280
Si   -9.4458131740   17.5422244660    6.7470094100
Si    0.0000000000    8.0964112920    8.0964112920
Si    1.3494018820    9.4458131740    9.4458131740
Si   -2.6988037640   10.7952150560    8.0964112920
Si   -1.3494018820   12.1446169380    9.4458131740
Si   -5.3976075280   13.4940188200    8.0964112920
Si   -4.0482056460   14.8434207020    9.4458131740
Si   -8.0964112920   16.1928225840    8.0964112920
Si   -6.7470094100   17.5422244660    9.4458131740
Si  -10.7952150560   18.8916263480    8.0964112920
Si   -9.4458131740   20.2410282300    9.4458131740
Si    0.0000000000   10.7952150560   10.7952150560
Si    1.3494018820   12.1446169380   12.1446169380
Si   -2.6988037640   13.4940188200   10.7952150560
Si   -1.3494018820   14.8434207020   12.1446169380
Si   -5.3976075280   16.1928225840   10.7952150560
Si   -4.0482056460   17.5422244660   12.1446169380
Si   -8.0964112920   18.8916263480   10.7952150560
Si   -6.7470094100   20.2410282300   12.1446169380
Si  -10.7952150560   21.5904301120   10.7952150560
Si   -9.4458131740   22.9398319940   12.1446169380
Si   -2.6988037640    0.0000000000    2.6988037640
Si   -1.3494018820    1.3494018820    4.0482056460
Si   -5.3976075280    2.6988037640    2.6988037640
Si   -4.0482056460    4.0482056460    4.0482056460
Si   -8.0964112920    5.3976075280    2.6988037640
Si   -6.7470094100    6.7470094100    4.0482056460
Si  -10.7952150560    8.0964112920    2.6988037640
Si   -9.4458131740    9.4458131740    4.0482056460
Si  -13.4940188200   10.7952150560    2.6988037640
Si  -12.1446169380   12.1446169380    4.0482056460
Si   -2.6988037640    2.6988037640    5.3976075280
Si   -1.3494018820    4.0482056460    6.7470094100
Si   -5.3976075280    5.3976075280    5.3976075280
Si   -4.0482056460    6.7470094100    6.7470094100
Si   -8.0964112920    8.0964112920    5.3976075280
Si   -6.7470094100    9.4458131740    6.7470094100
Si  -10.7952150560   10.7952150560    5.3976075280
Si   -9.4458131740   12.1446169380    6.7470094100
Si  -13.4940188200   13.4940188200    5.3976075280
Si  -12.1446169380   14.8434207020    6.7470094100
Si   -2.6988037640    5.3976075280    8.0964112920
Si   -1.3494018820    6.7470094100    9.4458131740
Si   -5.3976075280    8.0964112920    8.0964112920
Si   -4.0482056460    9.4458131740    9.4458131740
Si   -8.0964112920   10.7952150560    8.0964112920
Si   -6.7470094100   12.1446169380    9.4458131740
Si  -10.7952150560   13.4940188200    8.0964112920
Si   -9.4458131740   14.8434207020    9.4458131740
Si  -13.4940188200   16.1928225840    8.0964112920
Si  -12.1446169380   17.5422244660    9.4458131740
Si   -2.6988037640    8.0964112920   10.7952150560
Si   -1.3494018820    9.4458131740   12.1446169380
Si   -5.3976075280   10.7952150560   10.7952150560
Si   -4.0482056460   12.1446169380   12.1446169380
Si   -8.0964112920   13.4940188200   10.7952150560
Si   -6.7470094100   14.8434207020   12.1446169380
Si  -10.7952150560   16.1928225840   10.7952150560
Si   -9.4458131740   17.5422244660   12.1446169380
Si  -13.4940188200   18.8916263480   10.7952150560
Si  -12.1446169380   20.2410282300   12.1446169380
Si   -2.6988037640   10.7952150560   13.4940188200
Si   -1.3494018820   12.1446169380   14.8434207020
Si   -5.3976075280   13.4940188200   13.4940188200
Si   -4.0482056460   14.8434207020   14.8434207020
Si   -8.0964112920   16.1928225840   13.4940188200
Si   -6.7470094100   17.5422244660   14.8434207020
Si  -10.7952150560   18.8916263480   13.4940188200
Si   -9.4458131740   20.2410282300   14.8434207020
Si  -13.4940188200   21.5904301120   13.4940188200
Si  -12.1446169380   22.9398319940   14.8434207020
Si   -5.3976075280    0.0000000000    5.3976075280
Si   -4.0482056460    1.3494018820    6.7470094100
Si   -8.0964112920    2.6988037640    5.3976075280
Si   -6.7470094100    4.0482056460    6.7470094100
Si  -10.7952150560    5.3976075280    5.3976075280
Si   -9.4458131740    6.7470094100    6.7470094100
Si  -13.4940188200    8.0964112920    5.3976075280
Si  -12.1446169380    9.4458131740    6.7470094100
Si  -16.1928225840   10.7952150560    5.3976075280
Si  -14.8434207020   12.1446169380    6.7470094100
Si   -5.3976075280    2.6988037640    8.0964112920
Si   -4.0482056460    4.0482056460    9.4458131740
Si   -8.0964112920    5.3976075280    8.0964112920
Si   -6.7470094100    6.7470094100    9.4458131740
Si  -10.7952150560    8.0964112920    8.0964112920
Si   -9.4458131740    9.4458131740    9.4458131740
Si  -13.4940188200   10.7952150560    8.0964112920
Si  -12.1446169380   12.1446169380    9.4458131740
Si  -16.1928225840   13.4940188200    8.0964112920
Si  -14.8434207020   14.8434207020    9.4458131740
Si   -5.3976075280    5.3976075280   10.7952150560
Si   -4.0482056460    6.7470094100   12.1446169380
Si   -8.0964112920    8.0964112920   10.7952150560
Si   -6.7470094100    9.4458131740   12.1446169380
Si  -10.7952150560   10.7952150560   10.7952150560
Si   -9.4458131740   12.1446169380   12.1446169380
Si  -13.4940188200   13.4940188200   10.7952150560
Si  -12.1446169380   14.8434207020   12.1446169380
Si  -16.1928225840   16.1928225840   10.7952150560
Si  -14.8434207020   17.5422244660   12.1446169380
Si   -5.3976075280    8.0964112920   13.4940188200
Si   -4.0482056460    9.4458131740   14.8434207020
Si   -8.0964112920   10.7952150560   13.4940188200
Si   -6.7470094100   12.1446169380   14.8434207020
Si  -10.7952150560   13.4940188200   13.4940188200
Si   -9.4458131740   14.8434207020   14.8434207020
Si  -13.4940188200   16.1928225840   13.4940188200
Si  -12.1446169380   17.5422244660   14.8434207020
Si  -16.1928225840   18.8916263480   13.4940188200
Si  -14.8434207020   20.2410282300   14.8434207020
Si   -5.3976075280   10.7952150560   16.1928225840
Si   -4.0482056460   12.1446169380   17.5422244660
Si   -8.0964112920   13.4940188200   16.1928225840
Si   -6.7470094100   14.8434207020   17.5422244660
Si  -10.7952150560   16.1928225840   16.1928225840
Si   -9.4458131740   17.5422244660   17.5422244660
Si  -13.4940188200   18.8916263480   16.1928225840
Si  -12.1446169380   20.2410282300   17.5422244660
Si  -16.1928225840   21.5904301120   16.1928225840
Si  -14.8434207020   22.9398319940   17.5422244660
Si   -8.0964112920    0.0000000000    8.0964112920
Si   -6.7470094100    1.3494018820    9.4458131740
Si  -10.7952150560    2.6988037640    8.0964112920
Si   -9.4458131740    4.0482056460    9.4458131740
Si  -13.4940188200    5.3976075280    8.0964112920
Si  -12.1446169380    6.7470094100    9.4458131740
Si  -16.1928225840    8.0964112920    8.0964112920
Si  -14.8434207020    9.4458131740    9.4458131740
Si  -18.8916263480   10.7952150560    8.0964112920
Si  -17.5422244660   12.1446169380    9.4458131740
Si   -8.0964112920    2.6988037640   10.7952150560
Si   -6.7470094100    4.0482056460   12.1446169380
Si  -10.7952150560    5.3976075280   10.7952150560
Si   -9.4458131740    6.7470094100   12.1446169380
Si  -13.4940188200    8.0964112920   10.7952150560
Si  -12.1446169380    9.4458131740   12.1446169380
Si  -16.1928225840   10.7952150560   10.7952150560
Si  -14.8434207020   12.1446169380   12.1446169380
Si  -18.8916263480   13.4940188200   10.7952150560
Si  -17.5422244660   14.8434207020   12.1446169380
Si   -8.0964112920    5.3976075280   13.4940188200
Si   -6.7470094100    6.7470094100   14.8434207020
Si  -10.7952150560    8.0964112920   13.4940188200
Si   -9.4458131740    9.4458131740   14.8434207020
Si  -13.4940188200   10.7952150560   13.4940188200
Si  -12.1446169380   12.1446169380   14.8434207020
Si  -16.1928225840   13.4940188200   13.4940188200
Si  -14.8434207020   14.8434207020   14.8434207020
Si  -18.8916263480   16.1928225840   13.4940188200
Si  -17.5422244660   17.5422244660   14.8434207020
Si   -8.0964112920    8.0964112920   16.1928225840
Si   -6.7470094100    9.4458131740   17.5422244660
Si  -10.7952150560   10.7952150560   16.1928225840
Si   -9.4458131740   12.1446169380   17.5422244660
Si  -13.4940188200   13.4940188200   16.1928225840
Si  -12.1446169380   14.8434207020   17.5422244660
Si  -16.1928225840   16.1928225840   16.1928225840
Si  -14.8434207020   17.5422244660   17.5422244660
Si  -18.8916263480   18.8916263480   16.1928225840
Si  -17.5422244660   20.2410282300   17.5422244660
Si   -8.0964112920   10.7952150560   18.8916263480
Si   -6.7470094100   12.1446169380   20.2410282300
Si  -10.7952150560   13.4940188200   18.8916263480
Si   -9.4458131740   14.8434207020   20.2410282300
Si  -13.4940188200   16.1928225840   18.8916263480
Si  -12.1446169380   17.5422244660   20.2410282300
Si  -16.1928225840   18.8916263480   18.8916263480
Si  -14.8434207020   20.2410282300   20.2410282300
Si  -18.8916263480   21.5904301120   18.8916263480
Si  -17.5422244660   22.9398319940   20.2410282300
Si  -10.7952150560    0.0000000000   10.7952150560
Si   -9.4458131740    1.3494018820   12.1446169380
Si  -13.4940188200    2.6988037640   10.7952150560
Si  -12.1446169380    4.0482056460   12.1446169380
Si  -16.1928225840    5.3976075280   10.7952150560
Si  -14.8434207020    6.7470094100   12.1446169380
Si  -18.8916263480    8.0964112920   10.7952150560
Si  -17.5422244660    9.4458131740   12.1446169380
Si  -21.5904301120   10.7952150560   10.7952150560
Si  -20.2410282300   12.1446169380   12.1446169380
Si  -10.7952150560    2.6988037640   13.4940188200
Si   -9.4458131740    4.0482056460   14.8434207020
Si  -13.4940188200    5.3976075280   13.4940188200
Si  -12.1446169380    6.7470094100   14.8434207020
Si  -16.1928225840    8.0964112920   13.4940188200
Si  -14.8434207020    9.4458131740   14.8434207020
Si  -18.8916263480   10.7952150560   13.4940188200
Si  -17.5422244660   12.1446169380   14.8434207020
Si  -21.5904301120   13.4940188200   13.4940188200
Si  -20.2410282300   14.8434207020   14.8434207020
Si  -10.7952150560    5.3976075280   16.1928225840
Si   -9.4458131740    6.7470094100   17.5422244660
Si  -13.4940188200    8.0964112920   16.1928225840
Si  -12.1446169380    9.4458131740   17.5422244660
Si  -16.1928225840   10.7952150560   16.1928225840
Si  -14.8434207020   12.1446169380   17.5422244660
Si  -18.8916263480   13.4940188200   16.1928225840
Si  -17.5422244660   14.8434207020   17.5422244660
Si  -21.5904301120   16.1928225840   16.1928225840
Si  -20.2410282300   17.5422244660   17.5422244660
Si  -10.7952150560    8.0964112920   18.8916263480
Si   -9.4458131740    9.4458131740   20.2410282300
Si  -13.4940188200   10.7952150560   18.8916263480
Si  -12.1446169380   12.1446169380   20.2410282300
Si  -16.1928225840   13.4940188200   18.8916263480
Si  -14.8434207020   14.8434207020   20.2410282300
Si  -18.8916263480   16.1928225840   18.8916263480
Si  -17.5422244660   17.5422244660   20.2410282300
Si  -21.5904301120   18.8916263480   18.8916263480
Si  -20.2410282300   20.2410282300   20.2410282300
Si  -10.7952150560   10.7952150560   21.5904301120
Si   -9.4458131740   12.1446169380   22.9398319940
Si  -13.4940188200   13.4940188200   21.5904301120
Si  -12.1446169380   14.8434207020   22.9398319940
Si  -16.1928225840   16.1928225840   21.5904301120
Si  -14.8434207020   17.5422244660   22.9398319940
Si  -18.8916263480   18.8916263480   21.5904301120
Si  -17.5422244660   20.2410282300   22.9398319940
Si  -21.5904301120   21.5904301120   21.5904301120
Si  -20.2410282300   22.9398319940   22.9398319940
