&CONTROL
   calculation      = 'scf'
   verbosity        = 'high'
   prefix           = 'P-102'
   disk_io          = 'nowf'
   pseudo_dir       = './'
/
&SYSTEM
   ecutwfc          = 100
   occupations      = 'smearing'
   degauss          = 0.0007349862
   smearing         = 'gaussian'
   nspin            = 1
   ntyp             = 1
   nat              = 8
   ibrav            = 0
/
&ELECTRONS
   conv_thr         = 1e-10
/
&IONS
/
&CELL
/

ATOMIC_SPECIES
P 30.973761998 P_ONCV_PBE-1.2.upf

K_POINTS automatic
30 8 22  1 1 1

CELL_PARAMETERS angstrom
3.32654580337492 0.00000000000000 0.00000000000000
0.00000000000000 11.39188880672923 0.00000000000000
0.00000000000000 0.00000000000000 4.60355743894998

ATOMIC_POSITIONS angstrom
P 0.8316364508 1.0659390356 0.4013841731 
P 0.8316364508 10.3259497711 4.2021732658 
P 0.8316364508 4.6300053677 2.7031628926 
P 0.8316364508 6.7618834390 1.9003945464 
P 2.4949093525 6.7618834390 0.4013841731 
P 2.4949093525 4.6300053677 4.2021732658 
P 2.4949093525 10.3259497711 2.7031628926 
P 2.4949093525 1.0659390356 1.9003945464 

