&CONTROL
   calculation      = 'scf'
   verbosity        = 'high'
   prefix           = 'P-104'
   disk_io          = 'nowf'
   pseudo_dir       = './'
/
&SYSTEM
   ecutwfc          = 100
   occupations      = 'smearing'
   degauss          = 0.0007349862
   smearing         = 'gaussian'
   nspin            = 1
   ntyp             = 1
   nat              = 8
   ibrav            = 0
/
&ELECTRONS
   conv_thr         = 1e-10
/
&IONS
/
&CELL
/

ATOMIC_SPECIES
P 30.973761998 P_ONCV_PBE-1.2.upf

K_POINTS automatic
30 8 22  1 1 1

CELL_PARAMETERS angstrom
3.34814735542839 0.00000000000000 0.00000000000000
0.00000000000000 11.46586418346872 0.00000000000000
0.00000000000000 0.00000000000000 4.63345150670870

ATOMIC_POSITIONS angstrom
P 0.8370368389 1.0728609116 0.4039906369 
P 0.8370368389 10.3930032718 4.2294608698 
P 0.8370368389 4.6600711801 2.7207163902 
P 0.8370368389 6.8057930034 1.9127351165 
P 2.5111105166 6.8057930034 0.4039906369 
P 2.5111105166 4.6600711801 4.2294608698 
P 2.5111105166 10.3930032718 2.7207163902 
P 2.5111105166 1.0728609116 1.9127351165 

