&CONTROL
   calculation      = 'scf'
   verbosity        = 'high'
   prefix           = 'P-100'
   disk_io          = 'nowf'
   pseudo_dir       = './'
/
&SYSTEM
   ecutwfc          = 100
   occupations      = 'smearing'
   degauss          = 0.0007349862
   smearing         = 'gaussian'
   nspin            = 1
   ntyp             = 1
   nat              = 8
   ibrav            = 0
/
&ELECTRONS
   conv_thr         = 1e-10
/
&IONS
/
&CELL
/

ATOMIC_SPECIES
P 30.973761998 P_ONCV_PBE-1.2.upf

K_POINTS automatic
30 8 22  1 1 1

CELL_PARAMETERS angstrom
3.30466000000000 0.00000000000000 0.00000000000000
0.00000000000000 11.31694000000000 0.00000000000000
0.00000000000000 0.00000000000000 4.57327000000000

ATOMIC_POSITIONS angstrom
P 0.8261650000 1.0589260758 0.3987434113 
P 0.8261650000 10.2580139242 4.1745265887 
P 0.8261650000 4.5995439242 2.6853784113 
P 0.8261650000 6.7173960758 1.8878915887 
P 2.4784950000 6.7173960758 0.3987434113 
P 2.4784950000 4.5995439242 4.1745265887 
P 2.4784950000 10.2580139242 2.6853784113 
P 2.4784950000 1.0589260758 1.8878915887 

