&CONTROL
   calculation      = 'scf'
   verbosity        = 'high'
   prefix           = 'P-106'
   disk_io          = 'nowf'
   pseudo_dir       = './'
/
&SYSTEM
   ecutwfc          = 100
   occupations      = 'smearing'
   degauss          = 0.0007349862
   smearing         = 'gaussian'
   nspin            = 1
   ntyp             = 1
   nat              = 8
   ibrav            = 0
/
&ELECTRONS
   conv_thr         = 1e-10
/
&IONS
/
&CELL
/

ATOMIC_SPECIES
P 30.973761998 P_ONCV_PBE-1.2.upf

K_POINTS automatic
30 8 22  1 1 1

CELL_PARAMETERS angstrom
3.36947370974580 0.00000000000000 0.00000000000000
0.00000000000000 11.53889713458288 0.00000000000000
0.00000000000000 0.00000000000000 4.66296473239885

ATOMIC_POSITIONS angstrom
P 0.8423684274 1.0796946049 0.4065638950 
P 0.8423684274 10.4592025297 4.2564008374 
P 0.8423684274 4.6897539624 2.7380462612 
P 0.8423684274 6.8491431722 1.9249184712 
P 2.5271052823 6.8491431722 0.4065638950 
P 2.5271052823 4.6897539624 4.2564008374 
P 2.5271052823 10.4592025297 2.7380462612 
P 2.5271052823 1.0796946049 1.9249184712 

