&CONTROL
   calculation      = 'scf'
   verbosity        = 'high'
   prefix           = 'P-94'
   disk_io          = 'nowf'
   pseudo_dir       = './'
/
&SYSTEM
   ecutwfc          = 100
   occupations      = 'smearing'
   degauss          = 0.0007349862
   smearing         = 'gaussian'
   nspin            = 1
   ntyp             = 1
   nat              = 8
   ibrav            = 0
/
&ELECTRONS
   conv_thr         = 1e-10
/
&IONS
/
&CELL
/

ATOMIC_SPECIES
P 30.973761998 P_ONCV_PBE-1.2.upf

K_POINTS automatic
30 8 22  1 1 1

CELL_PARAMETERS angstrom
3.23719903002797 0.00000000000000 0.00000000000000
0.00000000000000 11.08591721716749 0.00000000000000
0.00000000000000 0.00000000000000 4.47991176340562

ATOMIC_POSITIONS angstrom
P 0.8092997575 1.0373092740 0.3906035067 
P 0.8092997575 10.0486079432 4.0893082568 
P 0.8092997575 4.5056493346 2.6305593884 
P 0.8092997575 6.5802678826 1.8493523751 
P 2.4278992725 6.5802678826 0.3906035067 
P 2.4278992725 4.5056493346 4.0893082568 
P 2.4278992725 10.0486079432 2.6305593884 
P 2.4278992725 1.0373092740 1.8493523751 

