&CONTROL
   calculation      = 'scf'
   verbosity        = 'high'
   prefix           = 'P-96'
   disk_io          = 'nowf'
   pseudo_dir       = './'
/
&SYSTEM
   ecutwfc          = 100
   occupations      = 'smearing'
   degauss          = 0.0007349862
   smearing         = 'gaussian'
   nspin            = 1
   ntyp             = 1
   nat              = 8
   ibrav            = 0
/
&ELECTRONS
   conv_thr         = 1e-10
/
&IONS
/
&CELL
/

ATOMIC_SPECIES
P 30.973761998 P_ONCV_PBE-1.2.upf

K_POINTS automatic
30 8 22  1 1 1

CELL_PARAMETERS angstrom
3.25999695742277 0.00000000000000 0.00000000000000
0.00000000000000 11.16398962898939 0.00000000000000
0.00000000000000 0.00000000000000 4.51146147726932

ATOMIC_POSITIONS angstrom
P 0.8149992394 1.0446145096 0.3933543262 
P 0.8149992394 10.1193751194 4.1181071511 
P 0.8149992394 4.5373803049 2.6490850648 
P 0.8149992394 6.6266093241 1.8623764124 
P 2.4449977181 6.6266093241 0.3933543262 
P 2.4449977181 4.5373803049 4.1181071511 
P 2.4449977181 10.1193751194 2.6490850648 
P 2.4449977181 1.0446145096 1.8623764124 

