&CONTROL
   calculation      = 'scf'
   verbosity        = 'high'
   prefix           = 'P-98'
   disk_io          = 'nowf'
   pseudo_dir       = './'
/
&SYSTEM
   ecutwfc          = 100
   occupations      = 'smearing'
   degauss          = 0.0007349862
   smearing         = 'gaussian'
   nspin            = 1
   ntyp             = 1
   nat              = 8
   ibrav            = 0
/
&ELECTRONS
   conv_thr         = 1e-10
/
&IONS
/
&CELL
/

ATOMIC_SPECIES
P 30.973761998 P_ONCV_PBE-1.2.upf

K_POINTS automatic
30 8 22  1 1 1

CELL_PARAMETERS angstrom
3.28248040554143 0.00000000000000 0.00000000000000
0.00000000000000 11.24098509398488 0.00000000000000
0.00000000000000 0.00000000000000 4.54257598792326

ATOMIC_POSITIONS angstrom
P 0.8206201014 1.0518189752 0.3960672004 
P 0.8206201014 10.1891661187 4.1465087875 
P 0.8206201014 4.5686735717 2.6673551943 
P 0.8206201014 6.6723115222 1.8752207936 
P 2.4618603042 6.6723115222 0.3960672004 
P 2.4618603042 4.5686735717 4.1465087875 
P 2.4618603042 10.1891661187 2.6673551943 
P 2.4618603042 1.0518189752 1.8752207936 

