&CONTROL
   calculation      = 'scf'
   verbosity        = 'high'
   prefix           = 'Pd-106'
   disk_io          = 'nowf'
   pseudo_dir       = './'
/
&SYSTEM
   ecutwfc          = 100
   occupations      = 'smearing'
   degauss          = 0.0007349862
   smearing         = 'gaussian'
   nspin            = 1
   ntyp             = 1
   nat              = 4
   ibrav            = 0
/
&ELECTRONS
   conv_thr         = 1e-10
/
&IONS
/
&CELL
/

ATOMIC_SPECIES
Pd 106.42 Pd_ONCV_PBE-1.2.upf

K_POINTS automatic
26 26 26  1 1 1

CELL_PARAMETERS angstrom
4.03068242895838 0.00000000000000 0.00000000000000
0.00000000000000 4.03068242895838 0.00000000000000
0.00000000000000 0.00000000000000 4.03068242895838

ATOMIC_POSITIONS angstrom
Pd 1.0076706072 1.0076706072 1.0076706072 
Pd 1.0076706072 3.0230118217 3.0230118217 
Pd 3.0230118217 1.0076706072 3.0230118217 
Pd 3.0230118217 3.0230118217 1.0076706072 

