&CONTROL
   calculation      = 'scf'
   verbosity        = 'high'
   prefix           = 'Pd-104'
   disk_io          = 'nowf'
   pseudo_dir       = './'
/
&SYSTEM
   ecutwfc          = 100
   occupations      = 'smearing'
   degauss          = 0.0007349862
   smearing         = 'gaussian'
   nspin            = 1
   ntyp             = 1
   nat              = 4
   ibrav            = 0
/
&ELECTRONS
   conv_thr         = 1e-10
/
&IONS
/
&CELL
/

ATOMIC_SPECIES
Pd 106.42 Pd_ONCV_PBE-1.2.upf

K_POINTS automatic
26 26 26  1 1 1

CELL_PARAMETERS angstrom
4.00517109721173 0.00000000000000 0.00000000000000
0.00000000000000 4.00517109721173 0.00000000000000
0.00000000000000 0.00000000000000 4.00517109721173

ATOMIC_POSITIONS angstrom
Pd 1.0012927743 1.0012927743 1.0012927743 
Pd 1.0012927743 3.0038783229 3.0038783229 
Pd 3.0038783229 1.0012927743 3.0038783229 
Pd 3.0038783229 3.0038783229 1.0012927743 

