&CONTROL
   calculation      = 'scf'
   verbosity        = 'high'
   prefix           = 'Pd-98'
   disk_io          = 'nowf'
   pseudo_dir       = './'
/
&SYSTEM
   ecutwfc          = 100
   occupations      = 'smearing'
   degauss          = 0.0007349862
   smearing         = 'gaussian'
   nspin            = 1
   ntyp             = 1
   nat              = 4
   ibrav            = 0
/
&ELECTRONS
   conv_thr         = 1e-10
/
&IONS
/
&CELL
/

ATOMIC_SPECIES
Pd 106.42 Pd_ONCV_PBE-1.2.upf

K_POINTS automatic
26 26 26  1 1 1

CELL_PARAMETERS angstrom
3.92661799252151 0.00000000000000 0.00000000000000
0.00000000000000 3.92661799252151 0.00000000000000
0.00000000000000 0.00000000000000 3.92661799252151

ATOMIC_POSITIONS angstrom
Pd 0.9816544981 0.9816544981 0.9816544981 
Pd 0.9816544981 2.9449634944 2.9449634944 
Pd 2.9449634944 0.9816544981 2.9449634944 
Pd 2.9449634944 2.9449634944 0.9816544981 

