&CONTROL
   calculation      = 'scf'
   verbosity        = 'high'
   prefix           = 'S-100'
   disk_io          = 'nowf'
   pseudo_dir       = './'
/
&SYSTEM
   ecutwfc          = 100
   occupations      = 'smearing'
   degauss          = 0.0007349862
   smearing         = 'gaussian'
   nspin            = 1
   ntyp             = 1
   nat              = 1
   ibrav            = 0
/
&ELECTRONS
   conv_thr         = 1e-10
/
&IONS
/
&CELL
/

ATOMIC_SPECIES
S 32.06 S_ONCV_PBE-1.2.upf

K_POINTS automatic
38 38 38  1 1 1

CELL_PARAMETERS angstrom
2.58153000000000 0.00000000000000 0.00000000000000
-0.06556818967750 2.58069718359253 0.00000000000000
-0.06556818967750 -0.06725525075132 2.57982066908706

ATOMIC_POSITIONS angstrom
S 1.2251968103 1.2567209664 1.2899103345 

