&CONTROL
   calculation      = 'scf'
   verbosity        = 'high'
   prefix           = 'S-106'
   disk_io          = 'nowf'
   pseudo_dir       = './'
/
&SYSTEM
   ecutwfc          = 100
   occupations      = 'smearing'
   degauss          = 0.0007349862
   smearing         = 'gaussian'
   nspin            = 1
   ntyp             = 1
   nat              = 1
   ibrav            = 0
/
&ELECTRONS
   conv_thr         = 1e-10
/
&IONS
/
&CELL
/

ATOMIC_SPECIES
S 32.06 S_ONCV_PBE-1.2.upf

K_POINTS automatic
38 38 38  1 1 1

CELL_PARAMETERS angstrom
2.63216108946762 0.00000000000000 0.00000000000000
-0.06685416693819 2.63131193917984 0.00000000000000
-0.06685416693819 -0.06857431604127 2.63041823375102

ATOMIC_POSITIONS angstrom
S 1.2492263778 1.2813688116 1.3152091169 

