&CONTROL
   calculation      = 'scf'
   verbosity        = 'high'
   prefix           = 'S-94'
   disk_io          = 'nowf'
   pseudo_dir       = './'
/
&SYSTEM
   ecutwfc          = 100
   occupations      = 'smearing'
   degauss          = 0.0007349862
   smearing         = 'gaussian'
   nspin            = 1
   ntyp             = 1
   nat              = 1
   ibrav            = 0
/
&ELECTRONS
   conv_thr         = 1e-10
/
&IONS
/
&CELL
/

ATOMIC_SPECIES
S 32.06 S_ONCV_PBE-1.2.upf

K_POINTS automatic
38 38 38  1 1 1

CELL_PARAMETERS angstrom
2.52883092723248 0.00000000000000 0.00000000000000
-0.06422968778171 2.52801511184862 0.00000000000000
-0.06422968778171 -0.06588230937417 2.52715649041497

ATOMIC_POSITIONS angstrom
S 1.2001857758 1.2310664012 1.2635782452 

