&CONTROL
   calculation      = 'scf'
   verbosity        = 'high'
   prefix           = 'S-98'
   disk_io          = 'nowf'
   pseudo_dir       = './'
/
&SYSTEM
   ecutwfc          = 100
   occupations      = 'smearing'
   degauss          = 0.0007349862
   smearing         = 'gaussian'
   nspin            = 1
   ntyp             = 1
   nat              = 1
   ibrav            = 0
/
&ELECTRONS
   conv_thr         = 1e-10
/
&IONS
/
&CELL
/

ATOMIC_SPECIES
S 32.06 S_ONCV_PBE-1.2.upf

K_POINTS automatic
38 38 38  1 1 1

CELL_PARAMETERS angstrom
2.56420377325273 0.00000000000000 0.00000000000000
-0.06512812145371 2.56337654638554 0.00000000000000
-0.06512812145371 -0.06680385962882 2.56250591470501

ATOMIC_POSITIONS angstrom
S 1.2169737652 1.2482863434 1.2812529574 

