&CONTROL
   calculation      = 'scf'
   verbosity        = 'high'
   prefix           = 'Y-100'
   disk_io          = 'nowf'
   pseudo_dir       = './'
/
&SYSTEM
   ecutwfc          = 100
   occupations      = 'smearing'
   degauss          = 0.0007349862
   smearing         = 'gaussian'
   nspin            = 1
   ntyp             = 1
   nat              = 2
   ibrav            = 0
/
&ELECTRONS
   conv_thr         = 1e-10
/
&IONS
/
&CELL
/

ATOMIC_SPECIES
Y 88.90584 Y_ONCV_PBE-1.2.upf

K_POINTS automatic
32 32 18  1 1 1

CELL_PARAMETERS angstrom
3.66051000000000 0.00000000000000 0.00000000000000
1.83025500000000 3.17009465080698 0.00000000000000
0.00000000000000 0.00000000000000 5.67399000000000

ATOMIC_POSITIONS angstrom
Y 1.8302641513 1.0567035004 1.4184975000 
Y 3.6605008487 2.1133911504 4.2554925000 

