&CONTROL
   calculation      = 'scf'
   verbosity        = 'high'
   prefix           = 'Y-98'
   disk_io          = 'nowf'
   pseudo_dir       = './'
/
&SYSTEM
   ecutwfc          = 100
   occupations      = 'smearing'
   degauss          = 0.0007349862
   smearing         = 'gaussian'
   nspin            = 1
   ntyp             = 1
   nat              = 2
   ibrav            = 0
/
&ELECTRONS
   conv_thr         = 1e-10
/
&IONS
/
&CELL
/

ATOMIC_SPECIES
Y 88.90584 Y_ONCV_PBE-1.2.upf

K_POINTS automatic
32 32 18  1 1 1

CELL_PARAMETERS angstrom
3.63594207854620 0.00000000000000 0.00000000000000
1.81797103927310 3.14881820670980 0.00000000000000
0.00000000000000 0.00000000000000 5.63590838278009

ATOMIC_POSITIONS angstrom
Y 1.8179801291 1.0496113169 1.4089770957 
Y 3.6359329887 2.0992068898 4.2269312871 

