&CONTROL
   calculation      = 'scf'
   verbosity        = 'high'
   prefix           = 'In-104'
   disk_io          = 'nowf'
   pseudo_dir       = './'
/
&SYSTEM
   ecutwfc          = 100
   occupations      = 'smearing'
   degauss          = 0.0007349862
   smearing         = 'gaussian'
   nspin            = 1
   ntyp             = 1
   nat              = 2
   ibrav            = 0
/
&ELECTRONS
   conv_thr         = 1e-10
/
&IONS
/
&CELL
/

ATOMIC_SPECIES
In 114.818 In_ONCV_PBE-1.2.upf

K_POINTS automatic
30 30 20  1 1 1

CELL_PARAMETERS angstrom
3.34181510915451 0.00000000000000 0.00000000000000
0.00000000000000 3.34181510915451 0.00000000000000
0.00000000000000 0.00000000000000 5.12918027140388

ATOMIC_POSITIONS angstrom
In 0.8354537773 0.8354537773 1.2822950679 
In 2.5063613319 2.5063613319 3.8468852036 

