&CONTROL
   calculation      = 'scf'
   verbosity        = 'high'
   prefix           = 'In-98'
   disk_io          = 'nowf'
   pseudo_dir       = './'
/
&SYSTEM
   ecutwfc          = 100
   occupations      = 'smearing'
   degauss          = 0.0007349862
   smearing         = 'gaussian'
   nspin            = 1
   ntyp             = 1
   nat              = 2
   ibrav            = 0
/
&ELECTRONS
   conv_thr         = 1e-10
/
&IONS
/
&CELL
/

ATOMIC_SPECIES
In 114.818 In_ONCV_PBE-1.2.upf

K_POINTS automatic
30 30 20  1 1 1

CELL_PARAMETERS angstrom
3.27627235311406 0.00000000000000 0.00000000000000
0.00000000000000 3.27627235311406 0.00000000000000
0.00000000000000 0.00000000000000 5.02858206347335

ATOMIC_POSITIONS angstrom
In 0.8190680883 0.8190680883 1.2571455159 
In 2.4572042648 2.4572042648 3.7714365476 

