&CONTROL
   calculation      = 'scf'
   verbosity        = 'high'
   prefix           = 'In-96'
   disk_io          = 'nowf'
   pseudo_dir       = './'
/
&SYSTEM
   ecutwfc          = 100
   occupations      = 'smearing'
   degauss          = 0.0007349862
   smearing         = 'gaussian'
   nspin            = 1
   ntyp             = 1
   nat              = 2
   ibrav            = 0
/
&ELECTRONS
   conv_thr         = 1e-10
/
&IONS
/
&CELL
/

ATOMIC_SPECIES
In 114.818 In_ONCV_PBE-1.2.upf

K_POINTS automatic
30 30 20  1 1 1

CELL_PARAMETERS angstrom
3.25383142723695 0.00000000000000 0.00000000000000
0.00000000000000 3.25383142723695 0.00000000000000
0.00000000000000 0.00000000000000 4.99413863960899

ATOMIC_POSITIONS angstrom
In 0.8134578568 0.8134578568 1.2485346599 
In 2.4403735704 2.4403735704 3.7456039797 

