&CONTROL
   calculation      = 'scf'
   verbosity        = 'high'
   prefix           = 'Si-104'
   disk_io          = 'nowf'
   pseudo_dir       = './'
/
&SYSTEM
   ecutwfc          = 100
   occupations      = 'smearing'
   degauss          = 0.0007349862
   smearing         = 'gaussian'
   nspin            = 1
   ntyp             = 1
   nat              = 2
   ibrav            = 0
/
&ELECTRONS
   conv_thr         = 1e-10
/
&IONS
/
&CELL
/

ATOMIC_SPECIES
Si 28.085 Si_ONCV_PBE-1.2.upf

K_POINTS automatic
32 32 32  1 1 1

CELL_PARAMETERS angstrom
3.91797859891897 0.00000000000000 0.00000000000000
1.95898929945949 3.39306899814759 0.00000000000000
1.95898929945949 1.13102299938253 3.19901613016534

ATOMIC_POSITIONS angstrom
Si 2.9384839492 1.6965344991 1.1996310488 
Si 4.8974732486 2.8275574985 1.9993850814 

