&CONTROL
   calculation      = 'scf'
   verbosity        = 'high'
   prefix           = 'Si-100'
   disk_io          = 'nowf'
   pseudo_dir       = './'
/
&SYSTEM
   ecutwfc          = 100
   occupations      = 'smearing'
   degauss          = 0.0007349862
   smearing         = 'gaussian'
   nspin            = 1
   ntyp             = 1
   nat              = 2
   ibrav            = 0
/
&ELECTRONS
   conv_thr         = 1e-10
/
&IONS
/
&CELL
/

ATOMIC_SPECIES
Si 28.085 Si_ONCV_PBE-1.2.upf

K_POINTS automatic
32 32 32  1 1 1

CELL_PARAMETERS angstrom
3.86709000000000 0.00000000000000 0.00000000000000
1.93354500000000 3.34899817872076 0.00000000000000
1.93354500000000 1.11633272624026 3.15746576313980

ATOMIC_POSITIONS angstrom
Si 2.9003175000 1.6744990894 1.1840496612 
Si 4.8338625000 2.7908318156 1.9734161020 

