&CONTROL
   calculation      = 'scf'
   verbosity        = 'high'
   prefix           = 'Si-96'
   disk_io          = 'nowf'
   pseudo_dir       = './'
/
&SYSTEM
   ecutwfc          = 100
   occupations      = 'smearing'
   degauss          = 0.0007349862
   smearing         = 'gaussian'
   nspin            = 1
   ntyp             = 1
   nat              = 2
   ibrav            = 0
/
&ELECTRONS
   conv_thr         = 1e-10
/
&IONS
/
&CELL
/

ATOMIC_SPECIES
Si 28.085 Si_ONCV_PBE-1.2.upf

K_POINTS automatic
32 32 32  1 1 1

CELL_PARAMETERS angstrom
3.81482562020905 0.00000000000000 0.00000000000000
1.90741281010452 3.30373589810876 0.00000000000000
1.90741281010452 1.10124529936959 3.11479207573618

ATOMIC_POSITIONS angstrom
Si 2.8611192152 1.6518679491 1.1680470284 
Si 4.7685320253 2.7531132484 1.9467450473 

