&CONTROL
   calculation      = 'scf'
   verbosity        = 'high'
   prefix           = 'Pt-102'
   disk_io          = 'nowf'
   pseudo_dir       = './'
/
&SYSTEM
   ecutwfc          = 100
   occupations      = 'smearing'
   degauss          = 0.0007349862
   smearing         = 'gaussian'
   nspin            = 1
   ntyp             = 1
   nat              = 4
   ibrav            = 0
/
&ELECTRONS
   conv_thr         = 1e-10
/
&IONS
/
&CELL
/

ATOMIC_SPECIES
Pt 195.084 Pt_ONCV_PBE-1.2.upf

K_POINTS automatic
26 26 26  1 1 1

CELL_PARAMETERS angstrom
4.00308686024318 0.00000000000000 0.00000000000000
0.00000000000000 4.00308686024318 0.00000000000000
0.00000000000000 0.00000000000000 4.00308686024318

ATOMIC_POSITIONS angstrom
Pt 1.0007717151 1.0007717151 1.0007717151 
Pt 1.0007717151 3.0023151452 3.0023151452 
Pt 3.0023151452 1.0007717151 3.0023151452 
Pt 3.0023151452 3.0023151452 1.0007717151 

