&CONTROL
   calculation      = 'scf'
   verbosity        = 'high'
   prefix           = 'Sc-100'
   disk_io          = 'nowf'
   pseudo_dir       = './'
/
&SYSTEM
   ecutwfc          = 100
   occupations      = 'smearing'
   degauss          = 0.0007349862
   smearing         = 'gaussian'
   nspin            = 1
   ntyp             = 1
   nat              = 2
   ibrav            = 0
/
&ELECTRONS
   conv_thr         = 1e-10
/
&IONS
/
&CELL
/

ATOMIC_SPECIES
Sc 44.955908 Sc_ONCV_PBE-1.2.upf

K_POINTS automatic
34 34 20  1 1 1

CELL_PARAMETERS angstrom
3.32145000000000 0.00000000000000 0.00000000000000
1.66072500000000 2.87646007739982 0.00000000000000
0.00000000000000 0.00000000000000 5.16192000000000

ATOMIC_POSITIONS angstrom
Sc 1.6607333036 0.9588248199 1.2904800000 
Sc 3.3214416964 1.9176352575 3.8714400000 

