&CONTROL
   calculation      = 'scf'
   verbosity        = 'high'
   prefix           = 'Sc-104'
   disk_io          = 'nowf'
   pseudo_dir       = './'
/
&SYSTEM
   ecutwfc          = 100
   occupations      = 'smearing'
   degauss          = 0.0007349862
   smearing         = 'gaussian'
   nspin            = 1
   ntyp             = 1
   nat              = 2
   ibrav            = 0
/
&ELECTRONS
   conv_thr         = 1e-10
/
&IONS
/
&CELL
/

ATOMIC_SPECIES
Sc 44.955908 Sc_ONCV_PBE-1.2.upf

K_POINTS automatic
34 34 20  1 1 1

CELL_PARAMETERS angstrom
3.36515830181853 0.00000000000000 0.00000000000000
1.68257915090926 2.91431257713095 0.00000000000000
0.00000000000000 0.00000000000000 5.22984778976745

ATOMIC_POSITIONS angstrom
Sc 1.6825875638 0.9714423829 1.3074619474 
Sc 3.3651498889 1.9428701942 3.9223858423 

