&CONTROL
   calculation      = 'scf'
   verbosity        = 'high'
   prefix           = 'Sc-102'
   disk_io          = 'nowf'
   pseudo_dir       = './'
/
&SYSTEM
   ecutwfc          = 100
   occupations      = 'smearing'
   degauss          = 0.0007349862
   smearing         = 'gaussian'
   nspin            = 1
   ntyp             = 1
   nat              = 2
   ibrav            = 0
/
&ELECTRONS
   conv_thr         = 1e-10
/
&IONS
/
&CELL
/

ATOMIC_SPECIES
Sc 44.955908 Sc_ONCV_PBE-1.2.upf

K_POINTS automatic
34 34 20  1 1 1

CELL_PARAMETERS angstrom
3.34344699866844 0.00000000000000 0.00000000000000
1.67172349933422 2.89551003705370 0.00000000000000
0.00000000000000 0.00000000000000 5.19610589693254

ATOMIC_POSITIONS angstrom
Sc 1.6717318580 0.9651748382 1.2990264742 
Sc 3.3434386401 1.9303351989 3.8970794227 

