&CONTROL
   calculation      = 'scf'
   verbosity        = 'high'
   prefix           = 'Ni-100'
   disk_io          = 'nowf'
   pseudo_dir       = './'
/
&SYSTEM
   ecutwfc          = 100
   occupations      = 'smearing'
   degauss          = 0.0007349862
   smearing         = 'gaussian'
   nspin            = 2
   starting_magnetization(1) = 0.05555555555555555
   ntyp             = 1
   nat              = 4
   ibrav            = 0
/
&ELECTRONS
   conv_thr         = 1e-10
/
&IONS
/
&CELL
/

ATOMIC_SPECIES
Ni  58.6934 Ni_ONCV_PBE-1.2.upf

K_POINTS automatic
28 28 28  1 1 1

CELL_PARAMETERS angstrom
3.52414000000000 0.00000000000000 0.00000000000000
0.00000000000000 3.52414000000000 0.00000000000000
0.00000000000000 0.00000000000000 3.52414000000000

ATOMIC_POSITIONS angstrom
Ni  0.8810350000 0.8810350000 0.8810350000
Ni  0.8810350000 2.6431050000 2.6431050000
Ni  2.6431050000 0.8810350000 2.6431050000
Ni  2.6431050000 2.6431050000 0.8810350000

