&CONTROL
   calculation      = 'scf'
   verbosity        = 'high'
   prefix           = 'Bi-98'
   disk_io          = 'nowf'
   pseudo_dir       = './'
/
&SYSTEM
   ecutwfc          = 100
   occupations      = 'smearing'
   degauss          = 0.0007349862
   smearing         = 'gaussian'
   nspin            = 1
   ntyp             = 1
   nat              = 6
   ibrav            = 0
/
&ELECTRONS
   conv_thr         = 1e-10
/
&IONS
/
&CELL
/

ATOMIC_SPECIES
Bi 208.9804 Bi_ONCV_PBE-1.2.upf

K_POINTS automatic
26 26 8  1 1 1

CELL_PARAMETERS angstrom
4.55786269622041 0.00000000000000 0.00000000000000
-2.27893134811021 3.94722488188832 0.00000000000000
0.00000000000000 0.00000000000000 12.10046760356558

ATOMIC_POSITIONS angstrom
Bi 0.3798180931 0.6578642349 2.8283632977 
Bi 0.3798180931 0.6578642349 9.2721043059 
Bi 2.6587722306 1.9735927048 6.8618121640 
Bi 2.6587722306 1.9735927048 1.2050855686 
Bi 0.3797953038 3.2893606469 10.8953820349 
Bi 0.3797953038 3.2893606469 5.2386554396 

