&CONTROL
   calculation      = 'scf'
   verbosity        = 'high'
   prefix           = 'Ba-104'
   disk_io          = 'nowf'
   pseudo_dir       = './'
/
&SYSTEM
   ecutwfc          = 100
   occupations      = 'smearing'
   degauss          = 0.0007349862
   smearing         = 'gaussian'
   nspin            = 1
   ntyp             = 1
   nat              = 2
   ibrav            = 0
/
&ELECTRONS
   conv_thr         = 1e-10
/
&IONS
/
&CELL
/

ATOMIC_SPECIES
Ba 137.327 Ba_ONCV_PBE-1.2.upf

K_POINTS automatic
20 20 20  1 1 1

CELL_PARAMETERS angstrom
5.09408442965555 0.00000000000000 0.00000000000000
0.00000000000000 5.09408442965555 0.00000000000000
0.00000000000000 0.00000000000000 5.09408442965555

ATOMIC_POSITIONS angstrom
Ba 1.2735211074 1.2735211074 1.2735211074 
Ba 3.8205633222 3.8205633222 3.8205633222 

