&CONTROL
   calculation      = 'scf'
   verbosity        = 'high'
   prefix           = 'Ba-98'
   disk_io          = 'nowf'
   pseudo_dir       = './'
/
&SYSTEM
   ecutwfc          = 100
   occupations      = 'smearing'
   degauss          = 0.0007349862
   smearing         = 'gaussian'
   nspin            = 1
   ntyp             = 1
   nat              = 2
   ibrav            = 0
/
&ELECTRONS
   conv_thr         = 1e-10
/
&IONS
/
&CELL
/

ATOMIC_SPECIES
Ba 137.327 Ba_ONCV_PBE-1.2.upf

K_POINTS automatic
20 20 20  1 1 1

CELL_PARAMETERS angstrom
4.99417455369989 0.00000000000000 0.00000000000000
0.00000000000000 4.99417455369989 0.00000000000000
0.00000000000000 0.00000000000000 4.99417455369989

ATOMIC_POSITIONS angstrom
Ba 1.2485436384 1.2485436384 1.2485436384 
Ba 3.7456309153 3.7456309153 3.7456309153 

