&CONTROL
   calculation      = 'scf'
   verbosity        = 'high'
   prefix           = 'Na-102'
   disk_io          = 'nowf'
   pseudo_dir       = './'
/
&SYSTEM
   ecutwfc          = 100
   occupations      = 'smearing'
   degauss          = 0.0007349862
   smearing         = 'gaussian'
   nspin            = 1
   ntyp             = 1
   nat              = 3
   ibrav            = 0
/
&ELECTRONS
   conv_thr         = 1e-10
/
&IONS
/
&CELL
/

ATOMIC_SPECIES
Na 22.98976928 Na_ONCV_PBE-1.2.upf

K_POINTS automatic
32 32 32  1 1 1

CELL_PARAMETERS angstrom
9.48050353958939 0.00000000000000 0.00000000000000
8.73188241171122 3.69244863365967 0.00000000000000
8.73188241171122 1.77033516457504 3.24038428543347

ATOMIC_POSITIONS angstrom
Na 2.9937776578 0.6069699078 0.3600390980 
Na 8.9813329734 1.8209097235 1.0801172939 
Na 23.9504907052 4.8558138904 2.8803451875 

