&CONTROL
   calculation      = 'scf'
   verbosity        = 'high'
   prefix           = 'Na-100'
   disk_io          = 'nowf'
   pseudo_dir       = './'
/
&SYSTEM
   ecutwfc          = 100
   occupations      = 'smearing'
   degauss          = 0.0007349862
   smearing         = 'gaussian'
   nspin            = 1
   ntyp             = 1
   nat              = 3
   ibrav            = 0
/
&ELECTRONS
   conv_thr         = 1e-10
/
&IONS
/
&CELL
/

ATOMIC_SPECIES
Na 22.98976928 Na_ONCV_PBE-1.2.upf

K_POINTS automatic
32 32 32  1 1 1

CELL_PARAMETERS angstrom
9.41813000000000 0.00000000000000 0.00000000000000
8.67443415371286 3.66815550512787 0.00000000000000
8.67443415371286 1.75868788550247 3.21906535056168

ATOMIC_POSITIONS angstrom
Na 2.9740811819 0.6029765691 0.3576703511 
Na 8.9222435458 1.8089297074 1.0730110533 
Na 23.7929171255 4.8238668215 2.8613949995 

