&CONTROL
   calculation      = 'scf'
   verbosity        = 'high'
   prefix           = 'Na-106'
   disk_io          = 'nowf'
   pseudo_dir       = './'
/
&SYSTEM
   ecutwfc          = 100
   occupations      = 'smearing'
   degauss          = 0.0007349862
   smearing         = 'gaussian'
   nspin            = 1
   ntyp             = 1
   nat              = 3
   ibrav            = 0
/
&ELECTRONS
   conv_thr         = 1e-10
/
&IONS
/
&CELL
/

ATOMIC_SPECIES
Na 22.98976928 Na_ONCV_PBE-1.2.upf

K_POINTS automatic
32 32 32  1 1 1

CELL_PARAMETERS angstrom
9.60284611123935 0.00000000000000 0.00000000000000
8.84456429038283 3.74009838766702 0.00000000000000
8.84456429038283 1.79318071869693 3.28220030764775

ATOMIC_POSITIONS angstrom
Na 3.0324113080 0.6148026415 0.3646852762 
Na 9.0972339241 1.8444079245 1.0940558285 
Na 24.2595633840 4.9184764649 2.9175150315 

