&CONTROL
   calculation      = 'scf'
   verbosity        = 'high'
   prefix           = 'Na-98'
   disk_io          = 'nowf'
   pseudo_dir       = './'
/
&SYSTEM
   ecutwfc          = 100
   occupations      = 'smearing'
   degauss          = 0.0007349862
   smearing         = 'gaussian'
   nspin            = 1
   ntyp             = 1
   nat              = 3
   ibrav            = 0
/
&ELECTRONS
   conv_thr         = 1e-10
/
&IONS
/
&CELL
/

ATOMIC_SPECIES
Na 22.98976928 Na_ONCV_PBE-1.2.upf

K_POINTS automatic
32 32 32  1 1 1

CELL_PARAMETERS angstrom
9.35491916924644 0.00000000000000 0.00000000000000
8.61621472064353 3.64353627001301 0.00000000000000
8.61621472064353 1.74688425545289 3.19746023414695

ATOMIC_POSITIONS angstrom
Na 2.9541203041 0.5989296246 0.3552698066 
Na 8.8623609123 1.7967888738 1.0658094198 
Na 23.6332283064 4.7914909009 2.8421904275 

