&CONTROL
   calculation      = 'scf'
   verbosity        = 'high'
   prefix           = 'Na-94'
   disk_io          = 'nowf'
   pseudo_dir       = './'
/
&SYSTEM
   ecutwfc          = 100
   occupations      = 'smearing'
   degauss          = 0.0007349862
   smearing         = 'gaussian'
   nspin            = 1
   ntyp             = 1
   nat              = 3
   ibrav            = 0
/
&ELECTRONS
   conv_thr         = 1e-10
/
&IONS
/
&CELL
/

ATOMIC_SPECIES
Na 22.98976928 Na_ONCV_PBE-1.2.upf

K_POINTS automatic
32 32 32  1 1 1

CELL_PARAMETERS angstrom
9.22586931807729 0.00000000000000 0.00000000000000
8.49735519794494 3.59327417743178 0.00000000000000
8.49735519794494 1.72278622220456 3.15335170045781

ATOMIC_POSITIONS angstrom
Na 2.9133686120 0.5906674710 0.3503689074 
Na 8.7401058361 1.7720024130 1.0511067223 
Na 23.3072111019 4.7253929286 2.8029827930 

