&CONTROL
   calculation      = 'scf'
   verbosity        = 'high'
   prefix           = 'Na-96'
   disk_io          = 'nowf'
   pseudo_dir       = './'
/
&SYSTEM
   ecutwfc          = 100
   occupations      = 'smearing'
   degauss          = 0.0007349862
   smearing         = 'gaussian'
   nspin            = 1
   ntyp             = 1
   nat              = 3
   ibrav            = 0
/
&ELECTRONS
   conv_thr         = 1e-10
/
&IONS
/
&CELL
/

ATOMIC_SPECIES
Na 22.98976928 Na_ONCV_PBE-1.2.upf

K_POINTS automatic
32 32 32  1 1 1

CELL_PARAMETERS angstrom
9.29084236944561 0.00000000000000 0.00000000000000
8.55719769914850 3.61857975890726 0.00000000000000
8.55719769914850 1.73491891928197 3.17555913424562

ATOMIC_POSITIONS angstrom
Na 2.9338859684 0.5948272381 0.3528363754 
Na 8.8016579051 1.7844817144 1.0585091262 
Na 23.4713517994 4.7586714401 2.8227227588 

