&CONTROL
   calculation      = 'scf'
   verbosity        = 'high'
   prefix           = 'Si-100'
   disk_io          = 'nowf'
   pseudo_dir       = './'
/
&SYSTEM
   ecutwfc          = 25
   occupations      = 'fixed'
   nspin            = 1
   ntyp             = 1
   nat              = 432
   ibrav            = 2
   celldm(1)        = 61.200, 
/
&ELECTRONS
   conv_thr         = 1e-10
/
&IONS
/
&CELL
/

K_POINTS automatic
1 1 1 0 0 0

ATOMIC_SPECIES
  Si  28.086  Si_ONCV_PBE-1.2.upf

ATOMIC_POSITIONS crystal
Si	 0.1458333333	 0.1458333333	 0.1458333333
Si	 0.0208333333	 0.0208333333	 0.0208333333
Si	 0.1458333333	 0.1458333333	 0.3125000000
Si	 0.0208333333	 0.0208333333	 0.1875000000
Si	 0.1458333333	 0.1458333333	 0.4791666667
Si	 0.0208333333	 0.0208333333	 0.3541666667
Si	 0.1458333333	 0.1458333333	 0.6458333333
Si	 0.0208333333	 0.0208333333	 0.5208333333
Si	 0.1458333333	 0.1458333333	 0.8125000000
Si	 0.0208333333	 0.0208333333	 0.6875000000
Si	 0.1458333333	 0.1458333333	 0.9791666667
Si	 0.0208333333	 0.0208333333	 0.8541666667
Si	 0.1458333333	 0.3125000000	 0.1458333333
Si	 0.0208333333	 0.1875000000	 0.0208333333
Si	 0.1458333333	 0.3125000000	 0.3125000000
Si	 0.0208333333	 0.1875000000	 0.1875000000
Si	 0.1458333333	 0.3125000000	 0.4791666667
Si	 0.0208333333	 0.1875000000	 0.3541666667
Si	 0.1458333333	 0.3125000000	 0.6458333333
Si	 0.0208333333	 0.1875000000	 0.5208333333
Si	 0.1458333333	 0.3125000000	 0.8125000000
Si	 0.0208333333	 0.1875000000	 0.6875000000
Si	 0.1458333333	 0.3125000000	 0.9791666667
Si	 0.0208333333	 0.1875000000	 0.8541666667
Si	 0.1458333333	 0.4791666667	 0.1458333333
Si	 0.0208333333	 0.3541666667	 0.0208333333
Si	 0.1458333333	 0.4791666667	 0.3125000000
Si	 0.0208333333	 0.3541666667	 0.1875000000
Si	 0.1458333333	 0.4791666667	 0.4791666667
Si	 0.0208333333	 0.3541666667	 0.3541666667
Si	 0.1458333333	 0.4791666667	 0.6458333333
Si	 0.0208333333	 0.3541666667	 0.5208333333
Si	 0.1458333333	 0.4791666667	 0.8125000000
Si	 0.0208333333	 0.3541666667	 0.6875000000
Si	 0.1458333333	 0.4791666667	 0.9791666667
Si	 0.0208333333	 0.3541666667	 0.8541666667
Si	 0.1458333333	 0.6458333333	 0.1458333333
Si	 0.0208333333	 0.5208333333	 0.0208333333
Si	 0.1458333333	 0.6458333333	 0.3125000000
Si	 0.0208333333	 0.5208333333	 0.1875000000
Si	 0.1458333333	 0.6458333333	 0.4791666667
Si	 0.0208333333	 0.5208333333	 0.3541666667
Si	 0.1458333333	 0.6458333333	 0.6458333333
Si	 0.0208333333	 0.5208333333	 0.5208333333
Si	 0.1458333333	 0.6458333333	 0.8125000000
Si	 0.0208333333	 0.5208333333	 0.6875000000
Si	 0.1458333333	 0.6458333333	 0.9791666667
Si	 0.0208333333	 0.5208333333	 0.8541666667
Si	 0.1458333333	 0.8125000000	 0.1458333333
Si	 0.0208333333	 0.6875000000	 0.0208333333
Si	 0.1458333333	 0.8125000000	 0.3125000000
Si	 0.0208333333	 0.6875000000	 0.1875000000
Si	 0.1458333333	 0.8125000000	 0.4791666667
Si	 0.0208333333	 0.6875000000	 0.3541666667
Si	 0.1458333333	 0.8125000000	 0.6458333333
Si	 0.0208333333	 0.6875000000	 0.5208333333
Si	 0.1458333333	 0.8125000000	 0.8125000000
Si	 0.0208333333	 0.6875000000	 0.6875000000
Si	 0.1458333333	 0.8125000000	 0.9791666667
Si	 0.0208333333	 0.6875000000	 0.8541666667
Si	 0.1458333333	 0.9791666667	 0.1458333333
Si	 0.0208333333	 0.8541666667	 0.0208333333
Si	 0.1458333333	 0.9791666667	 0.3125000000
Si	 0.0208333333	 0.8541666667	 0.1875000000
Si	 0.1458333333	 0.9791666667	 0.4791666667
Si	 0.0208333333	 0.8541666667	 0.3541666667
Si	 0.1458333333	 0.9791666667	 0.6458333333
Si	 0.0208333333	 0.8541666667	 0.5208333333
Si	 0.1458333333	 0.9791666667	 0.8125000000
Si	 0.0208333333	 0.8541666667	 0.6875000000
Si	 0.1458333333	 0.9791666667	 0.9791666667
Si	 0.0208333333	 0.8541666667	 0.8541666667
Si	 0.3125000000	 0.1458333333	 0.1458333333
Si	 0.1875000000	 0.0208333333	 0.0208333333
Si	 0.3125000000	 0.1458333333	 0.3125000000
Si	 0.1875000000	 0.0208333333	 0.1875000000
Si	 0.3125000000	 0.1458333333	 0.4791666667
Si	 0.1875000000	 0.0208333333	 0.3541666667
Si	 0.3125000000	 0.1458333333	 0.6458333333
Si	 0.1875000000	 0.0208333333	 0.5208333333
Si	 0.3125000000	 0.1458333333	 0.8125000000
Si	 0.1875000000	 0.0208333333	 0.6875000000
Si	 0.3125000000	 0.1458333333	 0.9791666667
Si	 0.1875000000	 0.0208333333	 0.8541666667
Si	 0.3125000000	 0.3125000000	 0.1458333333
Si	 0.1875000000	 0.1875000000	 0.0208333333
Si	 0.3125000000	 0.3125000000	 0.3125000000
Si	 0.1875000000	 0.1875000000	 0.1875000000
Si	 0.3125000000	 0.3125000000	 0.4791666667
Si	 0.1875000000	 0.1875000000	 0.3541666667
Si	 0.3125000000	 0.3125000000	 0.6458333333
Si	 0.1875000000	 0.1875000000	 0.5208333333
Si	 0.3125000000	 0.3125000000	 0.8125000000
Si	 0.1875000000	 0.1875000000	 0.6875000000
Si	 0.3125000000	 0.3125000000	 0.9791666667
Si	 0.1875000000	 0.1875000000	 0.8541666667
Si	 0.3125000000	 0.4791666667	 0.1458333333
Si	 0.1875000000	 0.3541666667	 0.0208333333
Si	 0.3125000000	 0.4791666667	 0.3125000000
Si	 0.1875000000	 0.3541666667	 0.1875000000
Si	 0.3125000000	 0.4791666667	 0.4791666667
Si	 0.1875000000	 0.3541666667	 0.3541666667
Si	 0.3125000000	 0.4791666667	 0.6458333333
Si	 0.1875000000	 0.3541666667	 0.5208333333
Si	 0.3125000000	 0.4791666667	 0.8125000000
Si	 0.1875000000	 0.3541666667	 0.6875000000
Si	 0.3125000000	 0.4791666667	 0.9791666667
Si	 0.1875000000	 0.3541666667	 0.8541666667
Si	 0.3125000000	 0.6458333333	 0.1458333333
Si	 0.1875000000	 0.5208333333	 0.0208333333
Si	 0.3125000000	 0.6458333333	 0.3125000000
Si	 0.1875000000	 0.5208333333	 0.1875000000
Si	 0.3125000000	 0.6458333333	 0.4791666667
Si	 0.1875000000	 0.5208333333	 0.3541666667
Si	 0.3125000000	 0.6458333333	 0.6458333333
Si	 0.1875000000	 0.5208333333	 0.5208333333
Si	 0.3125000000	 0.6458333333	 0.8125000000
Si	 0.1875000000	 0.5208333333	 0.6875000000
Si	 0.3125000000	 0.6458333333	 0.9791666667
Si	 0.1875000000	 0.5208333333	 0.8541666667
Si	 0.3125000000	 0.8125000000	 0.1458333333
Si	 0.1875000000	 0.6875000000	 0.0208333333
Si	 0.3125000000	 0.8125000000	 0.3125000000
Si	 0.1875000000	 0.6875000000	 0.1875000000
Si	 0.3125000000	 0.8125000000	 0.4791666667
Si	 0.1875000000	 0.6875000000	 0.3541666667
Si	 0.3125000000	 0.8125000000	 0.6458333333
Si	 0.1875000000	 0.6875000000	 0.5208333333
Si	 0.3125000000	 0.8125000000	 0.8125000000
Si	 0.1875000000	 0.6875000000	 0.6875000000
Si	 0.3125000000	 0.8125000000	 0.9791666667
Si	 0.1875000000	 0.6875000000	 0.8541666667
Si	 0.3125000000	 0.9791666667	 0.1458333333
Si	 0.1875000000	 0.8541666667	 0.0208333333
Si	 0.3125000000	 0.9791666667	 0.3125000000
Si	 0.1875000000	 0.8541666667	 0.1875000000
Si	 0.3125000000	 0.9791666667	 0.4791666667
Si	 0.1875000000	 0.8541666667	 0.3541666667
Si	 0.3125000000	 0.9791666667	 0.6458333333
Si	 0.1875000000	 0.8541666667	 0.5208333333
Si	 0.3125000000	 0.9791666667	 0.8125000000
Si	 0.1875000000	 0.8541666667	 0.6875000000
Si	 0.3125000000	 0.9791666667	 0.9791666667
Si	 0.1875000000	 0.8541666667	 0.8541666667
Si	 0.4791666667	 0.1458333333	 0.1458333333
Si	 0.3541666667	 0.0208333333	 0.0208333333
Si	 0.4791666667	 0.1458333333	 0.3125000000
Si	 0.3541666667	 0.0208333333	 0.1875000000
Si	 0.4791666667	 0.1458333333	 0.4791666667
Si	 0.3541666667	 0.0208333333	 0.3541666667
Si	 0.4791666667	 0.1458333333	 0.6458333333
Si	 0.3541666667	 0.0208333333	 0.5208333333
Si	 0.4791666667	 0.1458333333	 0.8125000000
Si	 0.3541666667	 0.0208333333	 0.6875000000
Si	 0.4791666667	 0.1458333333	 0.9791666667
Si	 0.3541666667	 0.0208333333	 0.8541666667
Si	 0.4791666667	 0.3125000000	 0.1458333333
Si	 0.3541666667	 0.1875000000	 0.0208333333
Si	 0.4791666667	 0.3125000000	 0.3125000000
Si	 0.3541666667	 0.1875000000	 0.1875000000
Si	 0.4791666667	 0.3125000000	 0.4791666667
Si	 0.3541666667	 0.1875000000	 0.3541666667
Si	 0.4791666667	 0.3125000000	 0.6458333333
Si	 0.3541666667	 0.1875000000	 0.5208333333
Si	 0.4791666667	 0.3125000000	 0.8125000000
Si	 0.3541666667	 0.1875000000	 0.6875000000
Si	 0.4791666667	 0.3125000000	 0.9791666667
Si	 0.3541666667	 0.1875000000	 0.8541666667
Si	 0.4791666667	 0.4791666667	 0.1458333333
Si	 0.3541666667	 0.3541666667	 0.0208333333
Si	 0.4791666667	 0.4791666667	 0.3125000000
Si	 0.3541666667	 0.3541666667	 0.1875000000
Si	 0.4791666667	 0.4791666667	 0.4791666667
Si	 0.3541666667	 0.3541666667	 0.3541666667
Si	 0.4791666667	 0.4791666667	 0.6458333333
Si	 0.3541666667	 0.3541666667	 0.5208333333
Si	 0.4791666667	 0.4791666667	 0.8125000000
Si	 0.3541666667	 0.3541666667	 0.6875000000
Si	 0.4791666667	 0.4791666667	 0.9791666667
Si	 0.3541666667	 0.3541666667	 0.8541666667
Si	 0.4791666667	 0.6458333333	 0.1458333333
Si	 0.3541666667	 0.5208333333	 0.0208333333
Si	 0.4791666667	 0.6458333333	 0.3125000000
Si	 0.3541666667	 0.5208333333	 0.1875000000
Si	 0.4791666667	 0.6458333333	 0.4791666667
Si	 0.3541666667	 0.5208333333	 0.3541666667
Si	 0.4791666667	 0.6458333333	 0.6458333333
Si	 0.3541666667	 0.5208333333	 0.5208333333
Si	 0.4791666667	 0.6458333333	 0.8125000000
Si	 0.3541666667	 0.5208333333	 0.6875000000
Si	 0.4791666667	 0.6458333333	 0.9791666667
Si	 0.3541666667	 0.5208333333	 0.8541666667
Si	 0.4791666667	 0.8125000000	 0.1458333333
Si	 0.3541666667	 0.6875000000	 0.0208333333
Si	 0.4791666667	 0.8125000000	 0.3125000000
Si	 0.3541666667	 0.6875000000	 0.1875000000
Si	 0.4791666667	 0.8125000000	 0.4791666667
Si	 0.3541666667	 0.6875000000	 0.3541666667
Si	 0.4791666667	 0.8125000000	 0.6458333333
Si	 0.3541666667	 0.6875000000	 0.5208333333
Si	 0.4791666667	 0.8125000000	 0.8125000000
Si	 0.3541666667	 0.6875000000	 0.6875000000
Si	 0.4791666667	 0.8125000000	 0.9791666667
Si	 0.3541666667	 0.6875000000	 0.8541666667
Si	 0.4791666667	 0.9791666667	 0.1458333333
Si	 0.3541666667	 0.8541666667	 0.0208333333
Si	 0.4791666667	 0.9791666667	 0.3125000000
Si	 0.3541666667	 0.8541666667	 0.1875000000
Si	 0.4791666667	 0.9791666667	 0.4791666667
Si	 0.3541666667	 0.8541666667	 0.3541666667
Si	 0.4791666667	 0.9791666667	 0.6458333333
Si	 0.3541666667	 0.8541666667	 0.5208333333
Si	 0.4791666667	 0.9791666667	 0.8125000000
Si	 0.3541666667	 0.8541666667	 0.6875000000
Si	 0.4791666667	 0.9791666667	 0.9791666667
Si	 0.3541666667	 0.8541666667	 0.8541666667
Si	 0.6458333333	 0.1458333333	 0.1458333333
Si	 0.5208333333	 0.0208333333	 0.0208333333
Si	 0.6458333333	 0.1458333333	 0.3125000000
Si	 0.5208333333	 0.0208333333	 0.1875000000
Si	 0.6458333333	 0.1458333333	 0.4791666667
Si	 0.5208333333	 0.0208333333	 0.3541666667
Si	 0.6458333333	 0.1458333333	 0.6458333333
Si	 0.5208333333	 0.0208333333	 0.5208333333
Si	 0.6458333333	 0.1458333333	 0.8125000000
Si	 0.5208333333	 0.0208333333	 0.6875000000
Si	 0.6458333333	 0.1458333333	 0.9791666667
Si	 0.5208333333	 0.0208333333	 0.8541666667
Si	 0.6458333333	 0.3125000000	 0.1458333333
Si	 0.5208333333	 0.1875000000	 0.0208333333
Si	 0.6458333333	 0.3125000000	 0.3125000000
Si	 0.5208333333	 0.1875000000	 0.1875000000
Si	 0.6458333333	 0.3125000000	 0.4791666667
Si	 0.5208333333	 0.1875000000	 0.3541666667
Si	 0.6458333333	 0.3125000000	 0.6458333333
Si	 0.5208333333	 0.1875000000	 0.5208333333
Si	 0.6458333333	 0.3125000000	 0.8125000000
Si	 0.5208333333	 0.1875000000	 0.6875000000
Si	 0.6458333333	 0.3125000000	 0.9791666667
Si	 0.5208333333	 0.1875000000	 0.8541666667
Si	 0.6458333333	 0.4791666667	 0.1458333333
Si	 0.5208333333	 0.3541666667	 0.0208333333
Si	 0.6458333333	 0.4791666667	 0.3125000000
Si	 0.5208333333	 0.3541666667	 0.1875000000
Si	 0.6458333333	 0.4791666667	 0.4791666667
Si	 0.5208333333	 0.3541666667	 0.3541666667
Si	 0.6458333333	 0.4791666667	 0.6458333333
Si	 0.5208333333	 0.3541666667	 0.5208333333
Si	 0.6458333333	 0.4791666667	 0.8125000000
Si	 0.5208333333	 0.3541666667	 0.6875000000
Si	 0.6458333333	 0.4791666667	 0.9791666667
Si	 0.5208333333	 0.3541666667	 0.8541666667
Si	 0.6458333333	 0.6458333333	 0.1458333333
Si	 0.5208333333	 0.5208333333	 0.0208333333
Si	 0.6458333333	 0.6458333333	 0.3125000000
Si	 0.5208333333	 0.5208333333	 0.1875000000
Si	 0.6458333333	 0.6458333333	 0.4791666667
Si	 0.5208333333	 0.5208333333	 0.3541666667
Si	 0.6458333333	 0.6458333333	 0.6458333333
Si	 0.5208333333	 0.5208333333	 0.5208333333
Si	 0.6458333333	 0.6458333333	 0.8125000000
Si	 0.5208333333	 0.5208333333	 0.6875000000
Si	 0.6458333333	 0.6458333333	 0.9791666667
Si	 0.5208333333	 0.5208333333	 0.8541666667
Si	 0.6458333333	 0.8125000000	 0.1458333333
Si	 0.5208333333	 0.6875000000	 0.0208333333
Si	 0.6458333333	 0.8125000000	 0.3125000000
Si	 0.5208333333	 0.6875000000	 0.1875000000
Si	 0.6458333333	 0.8125000000	 0.4791666667
Si	 0.5208333333	 0.6875000000	 0.3541666667
Si	 0.6458333333	 0.8125000000	 0.6458333333
Si	 0.5208333333	 0.6875000000	 0.5208333333
Si	 0.6458333333	 0.8125000000	 0.8125000000
Si	 0.5208333333	 0.6875000000	 0.6875000000
Si	 0.6458333333	 0.8125000000	 0.9791666667
Si	 0.5208333333	 0.6875000000	 0.8541666667
Si	 0.6458333333	 0.9791666667	 0.1458333333
Si	 0.5208333333	 0.8541666667	 0.0208333333
Si	 0.6458333333	 0.9791666667	 0.3125000000
Si	 0.5208333333	 0.8541666667	 0.1875000000
Si	 0.6458333333	 0.9791666667	 0.4791666667
Si	 0.5208333333	 0.8541666667	 0.3541666667
Si	 0.6458333333	 0.9791666667	 0.6458333333
Si	 0.5208333333	 0.8541666667	 0.5208333333
Si	 0.6458333333	 0.9791666667	 0.8125000000
Si	 0.5208333333	 0.8541666667	 0.6875000000
Si	 0.6458333333	 0.9791666667	 0.9791666667
Si	 0.5208333333	 0.8541666667	 0.8541666667
Si	 0.8125000000	 0.1458333333	 0.1458333333
Si	 0.6875000000	 0.0208333333	 0.0208333333
Si	 0.8125000000	 0.1458333333	 0.3125000000
Si	 0.6875000000	 0.0208333333	 0.1875000000
Si	 0.8125000000	 0.1458333333	 0.4791666667
Si	 0.6875000000	 0.0208333333	 0.3541666667
Si	 0.8125000000	 0.1458333333	 0.6458333333
Si	 0.6875000000	 0.0208333333	 0.5208333333
Si	 0.8125000000	 0.1458333333	 0.8125000000
Si	 0.6875000000	 0.0208333333	 0.6875000000
Si	 0.8125000000	 0.1458333333	 0.9791666667
Si	 0.6875000000	 0.0208333333	 0.8541666667
Si	 0.8125000000	 0.3125000000	 0.1458333333
Si	 0.6875000000	 0.1875000000	 0.0208333333
Si	 0.8125000000	 0.3125000000	 0.3125000000
Si	 0.6875000000	 0.1875000000	 0.1875000000
Si	 0.8125000000	 0.3125000000	 0.4791666667
Si	 0.6875000000	 0.1875000000	 0.3541666667
Si	 0.8125000000	 0.3125000000	 0.6458333333
Si	 0.6875000000	 0.1875000000	 0.5208333333
Si	 0.8125000000	 0.3125000000	 0.8125000000
Si	 0.6875000000	 0.1875000000	 0.6875000000
Si	 0.8125000000	 0.3125000000	 0.9791666667
Si	 0.6875000000	 0.1875000000	 0.8541666667
Si	 0.8125000000	 0.4791666667	 0.1458333333
Si	 0.6875000000	 0.3541666667	 0.0208333333
Si	 0.8125000000	 0.4791666667	 0.3125000000
Si	 0.6875000000	 0.3541666667	 0.1875000000
Si	 0.8125000000	 0.4791666667	 0.4791666667
Si	 0.6875000000	 0.3541666667	 0.3541666667
Si	 0.8125000000	 0.4791666667	 0.6458333333
Si	 0.6875000000	 0.3541666667	 0.5208333333
Si	 0.8125000000	 0.4791666667	 0.8125000000
Si	 0.6875000000	 0.3541666667	 0.6875000000
Si	 0.8125000000	 0.4791666667	 0.9791666667
Si	 0.6875000000	 0.3541666667	 0.8541666667
Si	 0.8125000000	 0.6458333333	 0.1458333333
Si	 0.6875000000	 0.5208333333	 0.0208333333
Si	 0.8125000000	 0.6458333333	 0.3125000000
Si	 0.6875000000	 0.5208333333	 0.1875000000
Si	 0.8125000000	 0.6458333333	 0.4791666667
Si	 0.6875000000	 0.5208333333	 0.3541666667
Si	 0.8125000000	 0.6458333333	 0.6458333333
Si	 0.6875000000	 0.5208333333	 0.5208333333
Si	 0.8125000000	 0.6458333333	 0.8125000000
Si	 0.6875000000	 0.5208333333	 0.6875000000
Si	 0.8125000000	 0.6458333333	 0.9791666667
Si	 0.6875000000	 0.5208333333	 0.8541666667
Si	 0.8125000000	 0.8125000000	 0.1458333333
Si	 0.6875000000	 0.6875000000	 0.0208333333
Si	 0.8125000000	 0.8125000000	 0.3125000000
Si	 0.6875000000	 0.6875000000	 0.1875000000
Si	 0.8125000000	 0.8125000000	 0.4791666667
Si	 0.6875000000	 0.6875000000	 0.3541666667
Si	 0.8125000000	 0.8125000000	 0.6458333333
Si	 0.6875000000	 0.6875000000	 0.5208333333
Si	 0.8125000000	 0.8125000000	 0.8125000000
Si	 0.6875000000	 0.6875000000	 0.6875000000
Si	 0.8125000000	 0.8125000000	 0.9791666667
Si	 0.6875000000	 0.6875000000	 0.8541666667
Si	 0.8125000000	 0.9791666667	 0.1458333333
Si	 0.6875000000	 0.8541666667	 0.0208333333
Si	 0.8125000000	 0.9791666667	 0.3125000000
Si	 0.6875000000	 0.8541666667	 0.1875000000
Si	 0.8125000000	 0.9791666667	 0.4791666667
Si	 0.6875000000	 0.8541666667	 0.3541666667
Si	 0.8125000000	 0.9791666667	 0.6458333333
Si	 0.6875000000	 0.8541666667	 0.5208333333
Si	 0.8125000000	 0.9791666667	 0.8125000000
Si	 0.6875000000	 0.8541666667	 0.6875000000
Si	 0.8125000000	 0.9791666667	 0.9791666667
Si	 0.6875000000	 0.8541666667	 0.8541666667
Si	 0.9791666667	 0.1458333333	 0.1458333333
Si	 0.8541666667	 0.0208333333	 0.0208333333
Si	 0.9791666667	 0.1458333333	 0.3125000000
Si	 0.8541666667	 0.0208333333	 0.1875000000
Si	 0.9791666667	 0.1458333333	 0.4791666667
Si	 0.8541666667	 0.0208333333	 0.3541666667
Si	 0.9791666667	 0.1458333333	 0.6458333333
Si	 0.8541666667	 0.0208333333	 0.5208333333
Si	 0.9791666667	 0.1458333333	 0.8125000000
Si	 0.8541666667	 0.0208333333	 0.6875000000
Si	 0.9791666667	 0.1458333333	 0.9791666667
Si	 0.8541666667	 0.0208333333	 0.8541666667
Si	 0.9791666667	 0.3125000000	 0.1458333333
Si	 0.8541666667	 0.1875000000	 0.0208333333
Si	 0.9791666667	 0.3125000000	 0.3125000000
Si	 0.8541666667	 0.1875000000	 0.1875000000
Si	 0.9791666667	 0.3125000000	 0.4791666667
Si	 0.8541666667	 0.1875000000	 0.3541666667
Si	 0.9791666667	 0.3125000000	 0.6458333333
Si	 0.8541666667	 0.1875000000	 0.5208333333
Si	 0.9791666667	 0.3125000000	 0.8125000000
Si	 0.8541666667	 0.1875000000	 0.6875000000
Si	 0.9791666667	 0.3125000000	 0.9791666667
Si	 0.8541666667	 0.1875000000	 0.8541666667
Si	 0.9791666667	 0.4791666667	 0.1458333333
Si	 0.8541666667	 0.3541666667	 0.0208333333
Si	 0.9791666667	 0.4791666667	 0.3125000000
Si	 0.8541666667	 0.3541666667	 0.1875000000
Si	 0.9791666667	 0.4791666667	 0.4791666667
Si	 0.8541666667	 0.3541666667	 0.3541666667
Si	 0.9791666667	 0.4791666667	 0.6458333333
Si	 0.8541666667	 0.3541666667	 0.5208333333
Si	 0.9791666667	 0.4791666667	 0.8125000000
Si	 0.8541666667	 0.3541666667	 0.6875000000
Si	 0.9791666667	 0.4791666667	 0.9791666667
Si	 0.8541666667	 0.3541666667	 0.8541666667
Si	 0.9791666667	 0.6458333333	 0.1458333333
Si	 0.8541666667	 0.5208333333	 0.0208333333
Si	 0.9791666667	 0.6458333333	 0.3125000000
Si	 0.8541666667	 0.5208333333	 0.1875000000
Si	 0.9791666667	 0.6458333333	 0.4791666667
Si	 0.8541666667	 0.5208333333	 0.3541666667
Si	 0.9791666667	 0.6458333333	 0.6458333333
Si	 0.8541666667	 0.5208333333	 0.5208333333
Si	 0.9791666667	 0.6458333333	 0.8125000000
Si	 0.8541666667	 0.5208333333	 0.6875000000
Si	 0.9791666667	 0.6458333333	 0.9791666667
Si	 0.8541666667	 0.5208333333	 0.8541666667
Si	 0.9791666667	 0.8125000000	 0.1458333333
Si	 0.8541666667	 0.6875000000	 0.0208333333
Si	 0.9791666667	 0.8125000000	 0.3125000000
Si	 0.8541666667	 0.6875000000	 0.1875000000
Si	 0.9791666667	 0.8125000000	 0.4791666667
Si	 0.8541666667	 0.6875000000	 0.3541666667
Si	 0.9791666667	 0.8125000000	 0.6458333333
Si	 0.8541666667	 0.6875000000	 0.5208333333
Si	 0.9791666667	 0.8125000000	 0.8125000000
Si	 0.8541666667	 0.6875000000	 0.6875000000
Si	 0.9791666667	 0.8125000000	 0.9791666667
Si	 0.8541666667	 0.6875000000	 0.8541666667
Si	 0.9791666667	 0.9791666667	 0.1458333333
Si	 0.8541666667	 0.8541666667	 0.0208333333
Si	 0.9791666667	 0.9791666667	 0.3125000000
Si	 0.8541666667	 0.8541666667	 0.1875000000
Si	 0.9791666667	 0.9791666667	 0.4791666667
Si	 0.8541666667	 0.8541666667	 0.3541666667
Si	 0.9791666667	 0.9791666667	 0.6458333333
Si	 0.8541666667	 0.8541666667	 0.5208333333
Si	 0.9791666667	 0.9791666667	 0.8125000000
Si	 0.8541666667	 0.8541666667	 0.6875000000
Si	 0.9791666667	 0.9791666667	 0.9791666667
Si	 0.8541666667	 0.8541666667	 0.8541666667


