&CONTROL
   calculation      = 'scf'
   verbosity        = 'high'
   prefix           = 'Ru-104'
   disk_io          = 'nowf'
   pseudo_dir       = './'
/
&SYSTEM
   ecutwfc          = 100
   occupations      = 'smearing'
   degauss          = 0.0007349862
   smearing         = 'gaussian'
   nspin            = 1
   ntyp             = 1
   nat              = 2
   ibrav            = 0
/
&ELECTRONS
   conv_thr         = 1e-10
/
&IONS
/
&CELL
/

ATOMIC_SPECIES
Ru 101.07 Ru_ONCV_PBE-1.2.upf

K_POINTS automatic
42 42 24  1 1 1

CELL_PARAMETERS angstrom
2.76249056205013 0.00000000000000 0.00000000000000
1.38124528102507 2.39238700445017 0.00000000000000
0.00000000000000 0.00000000000000 4.35709201612867

ATOMIC_POSITIONS angstrom
Ru 1.3812521873 0.7974663221 1.0892730040 
Ru 2.7624836558 1.5949206823 3.2678190121 

