&CONTROL
   calculation      = 'scf'
   verbosity        = 'high'
   prefix           = 'Ru-100'
   disk_io          = 'nowf'
   pseudo_dir       = './'
/
&SYSTEM
   ecutwfc          = 100
   occupations      = 'smearing'
   degauss          = 0.0007349862
   smearing         = 'gaussian'
   nspin            = 1
   ntyp             = 1
   nat              = 2
   ibrav            = 0
/
&ELECTRONS
   conv_thr         = 1e-10
/
&IONS
/
&CELL
/

ATOMIC_SPECIES
Ru 101.07 Ru_ONCV_PBE-1.2.upf

K_POINTS automatic
42 42 24  1 1 1

CELL_PARAMETERS angstrom
2.72661000000000 0.00000000000000 0.00000000000000
1.36330500000000 2.36131352621269 0.00000000000000
0.00000000000000 0.00000000000000 4.30050000000000

ATOMIC_POSITIONS angstrom
Ru 1.3633118165 0.7871084443 1.0751250000 
Ru 2.7266031835 1.5742050820 3.2253750000 

