&CONTROL
   calculation      = 'scf'
   verbosity        = 'high'
   prefix           = 'Ru-102'
   disk_io          = 'nowf'
   pseudo_dir       = './'
/
&SYSTEM
   ecutwfc          = 100
   occupations      = 'smearing'
   degauss          = 0.0007349862
   smearing         = 'gaussian'
   nspin            = 1
   ntyp             = 1
   nat              = 2
   ibrav            = 0
/
&ELECTRONS
   conv_thr         = 1e-10
/
&IONS
/
&CELL
/

ATOMIC_SPECIES
Ru 101.07 Ru_ONCV_PBE-1.2.upf

K_POINTS automatic
42 42 24  1 1 1

CELL_PARAMETERS angstrom
2.74466754611370 0.00000000000000 0.00000000000000
1.37233377305685 2.37695181987716 0.00000000000000
0.00000000000000 0.00000000000000 4.32898096246327

ATOMIC_POSITIONS angstrom
Ru 1.3723406347 0.7923212349 1.0822452406 
Ru 2.7446606844 1.5846305850 3.2467357218 

