&CONTROL
   calculation      = 'scf'
   verbosity        = 'high'
   prefix           = 'Ru-106'
   disk_io          = 'nowf'
   pseudo_dir       = './'
/
&SYSTEM
   ecutwfc          = 100
   occupations      = 'smearing'
   degauss          = 0.0007349862
   smearing         = 'gaussian'
   nspin            = 1
   ntyp             = 1
   nat              = 2
   ibrav            = 0
/
&ELECTRONS
   conv_thr         = 1e-10
/
&IONS
/
&CELL
/

ATOMIC_SPECIES
Ru 101.07 Ru_ONCV_PBE-1.2.upf

K_POINTS automatic
42 42 24  1 1 1

CELL_PARAMETERS angstrom
2.78008651774464 0.00000000000000 0.00000000000000
1.39004325887232 2.40762554908547 0.00000000000000
0.00000000000000 0.00000000000000 4.38484494282674

ATOMIC_POSITIONS angstrom
Ru 1.3900502091 0.8025458624 1.0962112357 
Ru 2.7800795675 1.6050796867 3.2886337071 

