&CONTROL
   calculation      = 'scf'
   verbosity        = 'high'
   prefix           = 'Ru-98'
   disk_io          = 'nowf'
   pseudo_dir       = './'
/
&SYSTEM
   ecutwfc          = 100
   occupations      = 'smearing'
   degauss          = 0.0007349862
   smearing         = 'gaussian'
   nspin            = 1
   ntyp             = 1
   nat              = 2
   ibrav            = 0
/
&ELECTRONS
   conv_thr         = 1e-10
/
&IONS
/
&CELL
/

ATOMIC_SPECIES
Ru 101.07 Ru_ONCV_PBE-1.2.upf

K_POINTS automatic
42 42 24  1 1 1

CELL_PARAMETERS angstrom
2.70831005263880 0.00000000000000 0.00000000000000
1.35415502631940 2.34546530690997 0.00000000000000
0.00000000000000 0.00000000000000 4.27163671422505

ATOMIC_POSITIONS angstrom
Ru 1.3541617971 0.7818256781 1.0679091786 
Ru 2.7083032819 1.5636396288 3.2037275357 

