&CONTROL
   calculation      = 'scf'
   verbosity        = 'high'
   prefix           = 'Ru-94'
   disk_io          = 'nowf'
   pseudo_dir       = './'
/
&SYSTEM
   ecutwfc          = 100
   occupations      = 'smearing'
   degauss          = 0.0007349862
   smearing         = 'gaussian'
   nspin            = 1
   ntyp             = 1
   nat              = 2
   ibrav            = 0
/
&ELECTRONS
   conv_thr         = 1e-10
/
&IONS
/
&CELL
/

ATOMIC_SPECIES
Ru 101.07 Ru_ONCV_PBE-1.2.upf

K_POINTS automatic
42 42 24  1 1 1

CELL_PARAMETERS angstrom
2.67094927988494 0.00000000000000 0.00000000000000
1.33547463994247 2.31310992860011 0.00000000000000
0.00000000000000 0.00000000000000 4.21271006053127

ATOMIC_POSITIONS angstrom
Ru 1.3354813173 0.7710404980 1.0531775151 
Ru 2.6709426025 1.5420694306 3.1595325454 

