&CONTROL
   calculation      = 'scf'
   verbosity        = 'high'
   prefix           = 'Ru-96'
   disk_io          = 'nowf'
   pseudo_dir       = './'
/
&SYSTEM
   ecutwfc          = 100
   occupations      = 'smearing'
   degauss          = 0.0007349862
   smearing         = 'gaussian'
   nspin            = 1
   ntyp             = 1
   nat              = 2
   ibrav            = 0
/
&ELECTRONS
   conv_thr         = 1e-10
/
&IONS
/
&CELL
/

ATOMIC_SPECIES
Ru 101.07 Ru_ONCV_PBE-1.2.upf

K_POINTS automatic
42 42 24  1 1 1

CELL_PARAMETERS angstrom
2.68975940159608 0.00000000000000 0.00000000000000
1.34487970079804 2.32939997185024 0.00000000000000
0.00000000000000 0.00000000000000 4.24237801026328

ATOMIC_POSITIONS angstrom
Ru 1.3448864252 0.7764705396 1.0605945026 
Ru 2.6897526772 1.5529294322 3.1817835077 

