&CONTROL
   calculation      = 'scf'
   verbosity        = 'high'
   prefix           = 'H-104'
   disk_io          = 'nowf'
   pseudo_dir       = './'
/
&SYSTEM
   ecutwfc          = 100
   occupations      = 'smearing'
   degauss          = 0.0007349862
   smearing         = 'gaussian'
   nspin            = 1
   ntyp             = 1
   nat              = 4
   ibrav            = 0
/
&ELECTRONS
   conv_thr         = 1e-10
/
&IONS
/
&CELL
/

ATOMIC_SPECIES
H 1.008 H_ONCV_PBE-1.2.upf

K_POINTS automatic
28 28 20  1 1 1

CELL_PARAMETERS angstrom
4.06032749515570 0.00000000000000 0.00000000000000
-2.03016374757785 3.51634675848928 0.00000000000000
0.00000000000000 0.00000000000000 5.06890741847061

ATOMIC_POSITIONS angstrom
H -0.0000203016 2.3442428935 0.8869574201 
H 2.0301840492 1.1721038650 4.1819499984 
H 2.0301840492 1.1721038650 3.4214111293 
H -0.0000203016 2.3442428935 1.6474962892 

