&CONTROL
   calculation      = 'scf'
   verbosity        = 'high'
   prefix           = 'H-106'
   disk_io          = 'nowf'
   pseudo_dir       = './'
/
&SYSTEM
   ecutwfc          = 100
   occupations      = 'smearing'
   degauss          = 0.0007349862
   smearing         = 'gaussian'
   nspin            = 1
   ntyp             = 1
   nat              = 4
   ibrav            = 0
/
&ELECTRONS
   conv_thr         = 1e-10
/
&IONS
/
&CELL
/

ATOMIC_SPECIES
H 1.008 H_ONCV_PBE-1.2.upf

K_POINTS automatic
28 28 20  1 1 1

CELL_PARAMETERS angstrom
4.08619015101105 0.00000000000000 0.00000000000000
-2.04309507550552 3.53874447546934 0.00000000000000
0.00000000000000 0.00000000000000 5.10119432347592

ATOMIC_POSITIONS angstrom
H -0.0000204310 2.3591747795 0.8926069827 
H 2.0431155065 1.1795696960 4.2085873408 
H 2.0431155065 1.1795696960 3.4432041445 
H -0.0000204310 2.3591747795 1.6579901790 

