&CONTROL
   calculation      = 'scf'
   verbosity        = 'high'
   prefix           = 'si4x4x4'
   pseudo_dir       = './'
   disk_io          = 'none'
/
&SYSTEM
   ibrav            = 2
   celldm(1)        = 40.8
   ecutwfc          = 25
   nspin            = 1
   ntyp             = 1
   nat              = 128
/
&ELECTRONS
   conv_thr         = 1e-8
   diago_full_acc   = .true.
/
&IONS
/
&CELL
/

ATOMIC_SPECIES
Si 28.085 Si_ONCV_PBE-1.2.upf

K_POINTS
1
0. 0. 0. 1.

ATOMIC_POSITIONS angstrom
Si     0.0000000000    0.0000000000    0.0000000000
Si     1.3494018820    1.3494018820    1.3494018820
Si    -2.6988037640    2.6988037640    0.0000000000
Si    -1.3494018820    4.0482056460    1.3494018820
Si    -5.3976075280    5.3976075280    0.0000000000
Si    -4.0482056460    6.7470094100    1.3494018820
Si    -8.0964112920    8.0964112920    0.0000000000
Si    -6.7470094100    9.4458131740    1.3494018820
Si     0.0000000000    2.6988037640    2.6988037640
Si     1.3494018820    4.0482056460    4.0482056460
Si    -2.6988037640    5.3976075280    2.6988037640
Si    -1.3494018820    6.7470094100    4.0482056460
Si    -5.3976075280    8.0964112920    2.6988037640
Si    -4.0482056460    9.4458131740    4.0482056460
Si    -8.0964112920   10.7952150560    2.6988037640
Si    -6.7470094100   12.1446169380    4.0482056460
Si     0.0000000000    5.3976075280    5.3976075280
Si     1.3494018820    6.7470094100    6.7470094100
Si    -2.6988037640    8.0964112920    5.3976075280
Si    -1.3494018820    9.4458131740    6.7470094100
Si    -5.3976075280   10.7952150560    5.3976075280
Si    -4.0482056460   12.1446169380    6.7470094100
Si    -8.0964112920   13.4940188200    5.3976075280
Si    -6.7470094100   14.8434207020    6.7470094100
Si     0.0000000000    8.0964112920    8.0964112920
Si     1.3494018820    9.4458131740    9.4458131740
Si    -2.6988037640   10.7952150560    8.0964112920
Si    -1.3494018820   12.1446169380    9.4458131740
Si    -5.3976075280   13.4940188200    8.0964112920
Si    -4.0482056460   14.8434207020    9.4458131740
Si    -8.0964112920   16.1928225840    8.0964112920
Si    -6.7470094100   17.5422244660    9.4458131740
Si    -2.6988037640    0.0000000000    2.6988037640
Si    -1.3494018820    1.3494018820    4.0482056460
Si    -5.3976075280    2.6988037640    2.6988037640
Si    -4.0482056460    4.0482056460    4.0482056460
Si    -8.0964112920    5.3976075280    2.6988037640
Si    -6.7470094100    6.7470094100    4.0482056460
Si   -10.7952150560    8.0964112920    2.6988037640
Si    -9.4458131740    9.4458131740    4.0482056460
Si    -2.6988037640    2.6988037640    5.3976075280
Si    -1.3494018820    4.0482056460    6.7470094100
Si    -5.3976075280    5.3976075280    5.3976075280
Si    -4.0482056460    6.7470094100    6.7470094100
Si    -8.0964112920    8.0964112920    5.3976075280
Si    -6.7470094100    9.4458131740    6.7470094100
Si   -10.7952150560   10.7952150560    5.3976075280
Si    -9.4458131740   12.1446169380    6.7470094100
Si    -2.6988037640    5.3976075280    8.0964112920
Si    -1.3494018820    6.7470094100    9.4458131740
Si    -5.3976075280    8.0964112920    8.0964112920
Si    -4.0482056460    9.4458131740    9.4458131740
Si    -8.0964112920   10.7952150560    8.0964112920
Si    -6.7470094100   12.1446169380    9.4458131740
Si   -10.7952150560   13.4940188200    8.0964112920
Si    -9.4458131740   14.8434207020    9.4458131740
Si    -2.6988037640    8.0964112920   10.7952150560
Si    -1.3494018820    9.4458131740   12.1446169380
Si    -5.3976075280   10.7952150560   10.7952150560
Si    -4.0482056460   12.1446169380   12.1446169380
Si    -8.0964112920   13.4940188200   10.7952150560
Si    -6.7470094100   14.8434207020   12.1446169380
Si   -10.7952150560   16.1928225840   10.7952150560
Si    -9.4458131740   17.5422244660   12.1446169380
Si    -5.3976075280    0.0000000000    5.3976075280
Si    -4.0482056460    1.3494018820    6.7470094100
Si    -8.0964112920    2.6988037640    5.3976075280
Si    -6.7470094100    4.0482056460    6.7470094100
Si   -10.7952150560    5.3976075280    5.3976075280
Si    -9.4458131740    6.7470094100    6.7470094100
Si   -13.4940188200    8.0964112920    5.3976075280
Si   -12.1446169380    9.4458131740    6.7470094100
Si    -5.3976075280    2.6988037640    8.0964112920
Si    -4.0482056460    4.0482056460    9.4458131740
Si    -8.0964112920    5.3976075280    8.0964112920
Si    -6.7470094100    6.7470094100    9.4458131740
Si   -10.7952150560    8.0964112920    8.0964112920
Si    -9.4458131740    9.4458131740    9.4458131740
Si   -13.4940188200   10.7952150560    8.0964112920
Si   -12.1446169380   12.1446169380    9.4458131740
Si    -5.3976075280    5.3976075280   10.7952150560
Si    -4.0482056460    6.7470094100   12.1446169380
Si    -8.0964112920    8.0964112920   10.7952150560
Si    -6.7470094100    9.4458131740   12.1446169380
Si   -10.7952150560   10.7952150560   10.7952150560
Si    -9.4458131740   12.1446169380   12.1446169380
Si   -13.4940188200   13.4940188200   10.7952150560
Si   -12.1446169380   14.8434207020   12.1446169380
Si    -5.3976075280    8.0964112920   13.4940188200
Si    -4.0482056460    9.4458131740   14.8434207020
Si    -8.0964112920   10.7952150560   13.4940188200
Si    -6.7470094100   12.1446169380   14.8434207020
Si   -10.7952150560   13.4940188200   13.4940188200
Si    -9.4458131740   14.8434207020   14.8434207020
Si   -13.4940188200   16.1928225840   13.4940188200
Si   -12.1446169380   17.5422244660   14.8434207020
Si    -8.0964112920    0.0000000000    8.0964112920
Si    -6.7470094100    1.3494018820    9.4458131740
Si   -10.7952150560    2.6988037640    8.0964112920
Si    -9.4458131740    4.0482056460    9.4458131740
Si   -13.4940188200    5.3976075280    8.0964112920
Si   -12.1446169380    6.7470094100    9.4458131740
Si   -16.1928225840    8.0964112920    8.0964112920
Si   -14.8434207020    9.4458131740    9.4458131740
Si    -8.0964112920    2.6988037640   10.7952150560
Si    -6.7470094100    4.0482056460   12.1446169380
Si   -10.7952150560    5.3976075280   10.7952150560
Si    -9.4458131740    6.7470094100   12.1446169380
Si   -13.4940188200    8.0964112920   10.7952150560
Si   -12.1446169380    9.4458131740   12.1446169380
Si   -16.1928225840   10.7952150560   10.7952150560
Si   -14.8434207020   12.1446169380   12.1446169380
Si    -8.0964112920    5.3976075280   13.4940188200
Si    -6.7470094100    6.7470094100   14.8434207020
Si   -10.7952150560    8.0964112920   13.4940188200
Si    -9.4458131740    9.4458131740   14.8434207020
Si   -13.4940188200   10.7952150560   13.4940188200
Si   -12.1446169380   12.1446169380   14.8434207020
Si   -16.1928225840   13.4940188200   13.4940188200
Si   -14.8434207020   14.8434207020   14.8434207020
Si    -8.0964112920    8.0964112920   16.1928225840
Si    -6.7470094100    9.4458131740   17.5422244660
Si   -10.7952150560   10.7952150560   16.1928225840
Si    -9.4458131740   12.1446169380   17.5422244660
Si   -13.4940188200   13.4940188200   16.1928225840
Si   -12.1446169380   14.8434207020   17.5422244660
Si   -16.1928225840   16.1928225840   16.1928225840
Si   -14.8434207020   17.5422244660   17.5422244660
